7                                       
    1.000000000000000     
     9.8399999999999999    0.0000000000000000    0.0000000000000000
     0.0000000000000000    8.5216999999999992    0.0000000000000000
     0.0000000000000000    0.0000000000000000   30.7665000000000006
   H    C    O    F    Ca
   108    12    40    16     8
Selective dynamics
Direct
  0.4985119778895793  0.6014601897953296  0.3935041421354189   T   T   T
  0.5775047052349008 -0.2286190643922763  0.4076889954587296   T   T   T
  0.1279248510703347  0.3266346759273622  0.6195054577763029   T   T   T
 -0.0110494766790687  0.4258402588424311  0.6242784964197431   T   T   T
 -0.0935520543180840  0.5949821193757168  0.5500315986293922   T   T   T
 -0.1166866247770293  0.5219043149167543  0.5043654110499698   T   T   T
  0.6607766894026949  0.5050326693662813  0.7336207251758141   T   T   T
  0.7451648832026424  0.6655878216682519  0.7487062685363506   T   T   T
  0.8382347586632514 -0.1599180198819299  0.6777875006354834   T   T   T
  0.7357769112309108 -0.1257152608974710  0.6389653208803459   T   T   T
  0.5229158833979271  0.6315096821507554  0.7805032195579165   T   T   T
  0.3715546862048587  0.6085017207567192  0.7943940848559761   T   T   T
  0.2033287110755107  0.4836373302438513  0.4294132488696867   T   T   T
  0.1874208560089321  0.2900624681738951  0.4291731031303047   T   T   T
  0.2630101591094230  0.1404686182939400  0.4798512200159841   T   T   T
  0.1093725921603042  0.1242437020569123  0.4846533474957176   T   T   T
 -0.0188311005737184  0.4152786918710097  0.8012300171739660   T   T   T
 -0.1527800231022827  0.4485183666236743  0.7730552597229887   T   T   T
 -0.1327959715982490  0.3551614373671957  0.4483251002876507   T   T   T
 -0.1076327434613211  0.2691929054321398  0.4957634151681873   T   T   T
  0.3462287405608490  0.6625543948102982  0.4898249783216985   T   T   T
  0.4549636714773884  0.7087412270686754  0.4566608555033343   T   T   T
 -0.0895395355178012  0.0209231747632898  0.5100809435177720   T   T   T
  0.0039699148557398  0.0803412158436072  0.5475593918269822   T   T   T
  0.0143018683746394  0.1225956428275282  0.6185329484695544   T   T   T
 -0.0560164156553526 -0.0488293801732466  0.6212198069843274   T   T   T
  0.6126477242645570  0.4239377423998807  0.5625819239831795   T   T   T
  0.5354679166865045  0.4967599437192560  0.6031598176101183   T   T   T
  0.6488989566495490  0.3482651000736297  0.6699499573307274   T   T   T
  0.5311295173635204  0.2537848848891817  0.6889829738416869   T   T   T
  0.7080822845894127  0.1772002685317714  0.7387331968971318   T   T   T
  0.7876936361512653  0.1745337140890144  0.7830039626402603   T   T   T
  0.6606224501196485  0.3782632935467132  0.4930663009398241   T   T   T
  0.5364250189182976  0.5085924021400671  0.4987235215267953   T   T   T
  0.3201737102687874  0.2714192654515742  0.5757615595049690   T   T   T
  0.3383993534474511  0.4104755576029865  0.6140073778430701   T   T   T
  0.1543819524432165 -0.0977400550650778  0.6010759715805358   T   T   T
  0.2172207562904621 -0.2457875717061271  0.5766728974099786   T   T   T
  0.3573371297750803  0.5940594119451345  0.6611215723739593   T   T   T
  0.3309663694309130  0.6862647223367123  0.6159745075886028   T   T   T
  0.7127604662872093 -0.0935917028033064  0.5097260150399804   T   T   T
  0.8491464072493849 -0.2204134107596288  0.5026589434771063   T   T   T
  0.0370007698402138  0.3221859523553595  0.7348887579595341   T   T   T
  0.0597681545392303  0.3331812990683496  0.6829894994661563   T   T   T
 -0.1124524523392332  0.5375503119438955  0.3875296281155663   T   T   T
  0.0113142749953719  0.4195713343311292  0.3996661923964998   T   T   T
  0.2216798294833211  0.4605170814911791  0.7117160191439229   T   T   T
  0.3343198097826629  0.5829413141413238  0.7313752400557626   T   T   T
  0.5192669625309373 -0.0225431915531391  0.6418401981103307   T   T   T
  0.5158395613971406 -0.1983287305111167  0.6306126383707702   T   T   T
  0.5565115581549772  0.0575928357978948  0.7750299700709702   T   T   T
  0.4575448540102460 -0.0648497964264421  0.7922239271278635   T   T   T
  0.6772308036056885  0.0545544428383313  0.4034623340281785   T   T   T
  0.7246600696987848 -0.0738571128394604  0.4396954498234238   T   T   T
  0.1738434038220914  0.7305791959074983  0.4513873831308930   T   T   T
  0.0875038268280010  0.6414728399201971  0.4898474041153227   T   T   T
  0.5702224070900869  0.2751475863659060  0.3779705840849165   T   T   T
  0.7387626047429875  0.3026372503734523  0.3847505008707188   T   T   T
  0.4094339592496548  0.4113650945093013  0.3330097786195755   T   T   T
  0.3165345465758433  0.3722199793276922  0.3729691780994419   T   T   T
  0.4196489004789727  0.0907639301690170  0.5248239953567423   T   T   T
  0.4269338918325950  0.2606007687515358  0.5169169533617480   T   T   T
  0.2859620857760019 -0.1630833098116760  0.3953381668764580   T   T   T
  0.2064390037550477 -0.0376879885477305  0.4252749244350206   T   T   T
  0.7760672921094754  0.5085745205880924  0.6018087998453479   T   T   T
 -0.1375207066425459  0.6538472436444218  0.6205674163540041   T   T   T
  0.3201275572674003  0.0655705571170000  0.7438349055790178   T   T   T
  0.1788961892591080  0.1547459804248564  0.7259454869354652   T   T   T
 -0.0736843397919734 -0.1918159461445061  0.7412124446500040   T   T   T
  0.7927395138432521 -0.0781515818449716  0.7395909608718410   T   T   T
  0.1228873814762147 -0.3601188263538407  0.8008728220148966   T   T   T
  0.1277694400325370 -0.4062218609029126  0.8485171839660459   T   T   T
  0.1454467739804255  0.7007500094541105  0.7303751192530492   T   T   T
  0.1476656780278749 -0.1309444593253034  0.7502966663092721   T   T   T
  0.5303125573466273 -0.0850855037123246  0.5592297948821021   T   T   T
  0.4948293664473124 -0.1719345815956117  0.5136473079535490   T   T   T
 -0.0148566593704748 -0.2205525690454423  0.3906595616145748   T   T   T
 -0.1678727402019351 -0.1697845370021434  0.3891442702418022   T   T   T
  0.3646186383067554  0.2109310294194931  0.6452832181690537   T   T   T
  0.3408003764684507  0.1008118051197820  0.6881287015930234   T   T   T
 -0.8647433124754419  0.3230818328322079  0.3165469149288322   T   T   T
 -0.8881717987580614  0.1419102032985084  0.3437712507932350   T   T   T
 -0.7696888846285245  0.1477656727589538  0.3032002144231509   T   T   T
 -0.9755685247002353  0.0283350625869188  0.2669258100897383   T   T   T
 -0.9557831730502369  0.2162307720168953  0.2468143225494062   T   T   T
 -0.1142314769100782  0.2935366175617296  0.3139985190640339   T   T   T
 -0.1463404174493628  0.0895625320427346  0.3218365924028078   T   T   T
 -0.2384273666431966  0.0898062597745031  0.2384414831102199   T   T   T
 -0.2122090490265156  0.2901751109438716  0.2401680173697203   T   T   T
 -0.3704769480531815  0.3443911300946927  0.2947042195027587   T   T   T
 -0.4205923068854234  0.1316036711351810  0.3045786132241183   T   T   T
 -0.5123805475783407  0.0964323683914907  0.2357784492279162   T   T   T
 -0.5054260168357452  0.3070411476436635  0.2182632350105038   T   T   T
 -0.6080855932959131  0.2504805134562127  0.2632359166637838   T   T   T
  0.2283962741916103  0.6476270602169185  0.3054936124243166   T   T   T
  0.2753765795726357  0.5484535331075135  0.2563306794820105   T   T   T
  0.2360604222792667  0.7436422298784109  0.2554136856558646   T   T   T
  0.0333188903671811  0.4732193501049172  0.2836600782649655   T   T   T
  0.0441665847620551  0.5320391674799129  0.2275462460932745   T   T   T
 -0.0427024066013794  0.7969271023122110  0.2470230006210053   T   T   T
 -0.0317373095989683  0.7767417602154749  0.3036113516546477   T   T   T
  0.8028961769046127  0.5741477604158501  0.3069297829518355   T   T   T
  0.7784535394021145  0.5614449438580119  0.2530082186783303   T   T   T
  0.7090703221756323  0.8421105498767544  0.2499342852370709   T   T   T
  0.7135943341813167  0.8521819526498072  0.3086919296080657   T   T   T
  0.4669544395902130  0.8129975847662670  0.2784333594385957   T   T   T
  0.5237247441462370  0.6541606326654720  0.3115024352661918   T   T   T
  0.5070719157982713  0.6448240168545187  0.2522113110260706   T   T   T
 -0.8716240007850011  0.1915916297498739  0.3111256473589902   T   T   T
 -0.9795302341677424  0.1486570978028001  0.2773913192544446   T   T   T
 -0.1235424303510115  0.1798281390821101  0.2958591213461940   T   T   T
 -0.2407530689676152  0.1915079475997852  0.2607560010507464   T   T   T
 -0.3897671998827767  0.2289602321544930  0.2802866151151936   T   T   T
 -0.5092096731117988  0.2175409168950075  0.2474883316098476   T   T   T
  0.2022997383370105  0.6254042555575661  0.2689485188643256   T   T   T
  0.0545063203083041  0.5795138655838115  0.2621795493595692   T   T   T
 -0.0521260482942845  0.7124752757707336  0.2723279264445326   T   T   T
  0.7989640872639391  0.6493752176858583  0.2773726337862742   T   T   T
  0.6892491165599155  0.7778982797965229  0.2789105339475770   T   T   T
  0.5408411881999352  0.7203397690900022  0.2811506015106074   T   T   T
  0.4920336480210251  0.7057328323341417  0.4078756731328870   T   T   T
  0.0365270871026612  0.3295941768398743  0.6324974966758771   T   T   T
 -0.0773024721839798  0.6091389530317044  0.5184630651703186   T   T   T
  0.7087914177479326  0.5605793155063112  0.7575207889768029   T   T   T
  0.8370786910301130 -0.1432721794104244  0.6452483403964945   T   T   T
  0.4335054772530551  0.6704000359994413  0.7756950274705069   T   T   T
  0.1803594039161114  0.3908303379453048  0.4088591770822406   T   T   T
  0.1792170296505761  0.1320691795964642  0.4615937494607209   T   T   T
 -0.0795306980124367  0.3628669237006847  0.7789399180134875   T   T   T
  0.8392619697566438  0.3483255011715989  0.4802813996095889   T   T   T
  0.4407159514359429  0.6799840050017696  0.4882661625207491   T   T   T
 -0.0297978725883254  0.1092458005533266  0.5178403490948110   T   T   T
  0.0151695966672403  0.0216162070218384  0.6045222994225879   T   T   T
  0.6169372120282752  0.4373577383510462  0.5946136710195614   T   T   T
  0.6139953168484080  0.3143709735939833  0.6981246313578393   T   T   T
  0.7338995872777140  0.1102543705209259  0.7633402928133162   T   T   T
  0.5680359918459666  0.4030671944824410  0.5077447881299415   T   T   T
  0.2854294811066641  0.3184417374365496  0.6038704826095730   T   T   T
  0.2356927365961634 -0.1799267034869967  0.6010674558495310   T   T   T
  0.3976894872104444  0.6084820844616882  0.6313182255664943   T   T   T
  0.8062239730504916 -0.1157586867286948  0.4947132011703387   T   T   T
  0.1032256167571376  0.3214671106304960  0.7117965821269854   T   T   T
 -0.0929788933824566  0.4301947149836934  0.3981818732124878   T   T   T
  0.2755660355077071  0.5590122916674305  0.7082189970597660   T   T   T
  0.5691706003353323 -0.1033768349548359  0.6266414711746042   T   T   T
  0.4637113349432776  0.0443772661603228  0.7839108310916552   T   T   T
  0.6794905998181195 -0.0628234745332126  0.4104020408195270   T   T   T
  0.1751949276133745  0.6426814071162196  0.4737384042172145   T   T   T
  0.6563293579990712  0.2382125117503034  0.3932429089572886   T   T   T
  0.4177457023876160  0.4028496926979886  0.3633479528006740   T   T   T
  0.3610188155274822  0.1891731482494214  0.5299621642427597   T   T   T
  0.2066025369523241 -0.1477829158009252  0.4149076029748550   T   T   T
 -0.1281062760161109  0.5498343047461004  0.6051196019827421   T   T   T
  0.2283375684674651  0.0521783474975017  0.7322128624934847   T   T   T
 -0.1705147457031874 -0.1839190437691242  0.7299755705723222   T   T   T
  0.1524278697365916 -0.4417874383325935  0.8189230347909555   T   T   T
  0.0946947747395700 -0.2415196769651740  0.7531082839410373   T   T   T
  0.5322879257531301 -0.0693497890776062  0.5273363132944572   T   T   T
 -0.1012603304211955  0.7521768986984029  0.3772324547628912   T   T   T
  0.4103688281783783  0.1361909312298037  0.6650926533487366   T   T   T
  0.2872479999999982  0.1932959999999966  0.0822819999999993   F   F   F
  0.5243389999999977  0.1575610000000012  0.1378419999999991   F   F   F
  0.3039309999999986  0.4369719999999973  0.1683980000000034   F   F   F
  0.5250330000000005  0.9517680000000013  0.0351560000000006   F   F   F
  0.7776229999999984  0.1801109999999966  0.0844579999999979   F   F   F
  0.0266859999999980  0.1917699999999982  0.1411190000000033   F   F   F
  0.7652629999999974  0.4220510000000033  0.1705419999999975   F   F   F
  0.0287900000000008  0.9544259999999980  0.0465310000000017   F   F   F
  0.2867919999999984  0.6915729999999982  0.0790999999999968   F   F   F
  0.5433680000000010  0.6785580000000024  0.1363550000000018   F   F   F
  0.2848139999999972  0.9368189999999998  0.1762250000000023   F   F   F
  0.5339310000000026  0.4508160000000032  0.0430840000000003   F   F   F
  0.7929209999999998  0.7024130000000000  0.0843289999999968   F   F   F
  0.0521979999999971  0.6938290000000009  0.1423679999999976   F   F   F
  0.7893899999999974  0.9270059999999987  0.1742020000000011   F   F   F
  0.0142110000000031  0.4450700000000012  0.0453150000000022   F   F   F
  0.3045070000000010  0.1886289999999988  0.1551290000000023   F   F   F
  0.5375000000000014  0.1847420000000000  0.0623039999999975   F   F   F
  0.7710110000000014  0.1783610000000024  0.1547899999999984   F   F   F
  0.0328700000000026  0.1971860000000021  0.0700539999999990   F   F   F
  0.2984739999999988  0.6919910000000016  0.1517029999999977   F   F   F
  0.5512829999999980  0.6972760000000022  0.0603940000000023   F   F   F
  0.7819819999999993  0.6820239999999984  0.1552599999999984   F   F   F
  0.0445289999999972  0.6871909999999986  0.0707290000000000   F   F   F
 
  0.37975515E-02  0.10424350E-01 -0.27285390E-01
  0.35943587E-03 -0.10164800E-01  0.22962860E-01
 -0.84194827E-02  0.68341113E-02 -0.45306041E-03
 -0.12419340E-01 -0.39271163E-02 -0.76255499E-02
  0.65627442E-02  0.79728667E-02  0.59399360E-02
  0.19353650E-01 -0.42015276E-01 -0.86395182E-02
  0.92782481E-02 -0.72429521E-02  0.35648016E-01
 -0.21644297E-01 -0.16166212E-01  0.28258359E-02
 -0.16475878E-01 -0.86128053E-02  0.53218069E-02
 -0.11761220E-01  0.39307513E-01 -0.11916746E-01
 -0.99123581E-02  0.18772922E-01  0.37808208E-03
  0.58979610E-02  0.17433784E-01 -0.28554237E-01
 -0.49235443E-02 -0.11117317E-01 -0.12542760E-01
 -0.34994256E-01  0.31662029E-02 -0.45906538E-01
 -0.65012823E-02 -0.94967253E-02  0.88733602E-02
 -0.17384059E-01 -0.39036886E-02 -0.10493809E-01
  0.24680582E-01 -0.20519025E-02  0.60219696E-02
 -0.12089386E-01  0.80639479E-03  0.24596053E-01
  0.20194321E-02  0.16445440E-01 -0.48273336E-02
 -0.25666582E-02 -0.53454882E-02  0.12895539E-01
 -0.70244851E-02  0.76580212E-02 -0.13959941E-01
  0.12080280E-01  0.20140517E-01  0.26716953E-01
 -0.10397290E-01  0.39103170E-02 -0.12678898E-01
  0.15323916E-01  0.19162185E-01 -0.29053106E-02
  0.10670392E-01  0.26193239E-02  0.87241577E-02
  0.48203782E-02  0.75591359E-02 -0.27511458E-01
 -0.23880541E-01 -0.22999375E-01 -0.11374482E-01
  0.15896680E-01  0.32736235E-02  0.11279678E-01
 -0.26584977E-01  0.91664207E-02  0.15780009E-01
  0.39963220E-02  0.90005388E-02 -0.14064493E-01
 -0.90532788E-02 -0.70072664E-02 -0.12670819E-01
  0.17008474E-01  0.16050829E-01 -0.64206283E-03
  0.46820586E-02  0.71674193E-02  0.14210414E-01
  0.21206701E-01 -0.22862191E-02 -0.98524813E-02
 -0.13194540E-01 -0.10684332E-01  0.13301273E-01
  0.11046962E-01 -0.23660375E-01  0.17769090E-01
 -0.13753961E-01 -0.22019758E-02  0.42459863E-02
  0.73707376E-02  0.35136959E-01 -0.24012148E-01
 -0.18313640E-01 -0.69008061E-02  0.73733319E-02
  0.46194292E-02 -0.55157500E-02  0.32965756E-01
  0.23735459E-01 -0.31898240E-01 -0.20501587E-01
  0.54685223E-02  0.36978442E-02 -0.41172477E-01
  0.16024642E-01 -0.12239684E-01  0.29258868E-01
  0.84875191E-02  0.12987849E-01  0.74290651E-02
 -0.15808783E-02 -0.16138314E-01 -0.21090338E-01
 -0.20850384E-01 -0.59659828E-02  0.14740933E-01
 -0.18789949E-01 -0.54816685E-02 -0.17368893E-01
  0.27373515E-01  0.16244765E-01 -0.53674119E-02
  0.57207158E-02  0.47876035E-02  0.10384725E-01
  0.17266228E-02  0.22100838E-01 -0.32432766E-02
  0.33542487E-02 -0.12649461E-01 -0.30116153E-01
 -0.56135190E-02 -0.81332009E-03  0.17186239E-02
 -0.19536168E-02  0.57801158E-03  0.14076022E-01
 -0.40019420E-01 -0.20190012E-01 -0.10783704E-01
 -0.12770552E-03  0.35236884E-01 -0.10883986E-01
  0.29446751E-01  0.79953320E-02 -0.12708522E-01
 -0.11856681E-01  0.77745982E-02  0.38090276E-01
 -0.24439233E-01  0.18396722E-01 -0.27200201E-02
 -0.84341784E-02  0.12422078E-01 -0.13802477E-01
  0.24935071E-01 -0.19007483E-01  0.15364379E-01
 -0.16075334E-01  0.30946869E-01  0.63471686E-02
 -0.11288682E-02 -0.10717259E-01 -0.15707404E-01
 -0.56217497E-02 -0.21066721E-01  0.14648215E-01
 -0.75447901E-03  0.22690244E-02  0.56811918E-02
 -0.85897228E-02 -0.16849247E-01  0.92884415E-02
  0.16050143E-01  0.12541675E-01 -0.75689004E-02
  0.10735211E-01 -0.11549281E-01 -0.19436698E-01
 -0.21130521E-01 -0.26011307E-02 -0.49698187E-02
  0.22051680E-01 -0.17857222E-01  0.60146788E-03
  0.29024705E-02  0.86892022E-02 -0.13725940E-01
  0.84020200E-02 -0.84723169E-02 -0.19403475E-01
  0.42474588E-02  0.11459352E-01  0.13160151E-01
 -0.18284193E-01 -0.15777178E-03  0.44127944E-02
 -0.30829970E-01 -0.14795817E-01  0.30353555E-01
  0.15545021E-01  0.14913429E-01  0.33684684E-02
  0.46381881E-01  0.55972229E-02  0.15818282E-02
 -0.14756099E-01  0.50053763E-06  0.15126495E-01
 -0.16392626E-01 -0.14069130E-01  0.14723940E-01
 -0.32148763E-01  0.22794164E-01 -0.14869704E-01
 -0.42541837E-02 -0.37793778E-02  0.61420952E-02
  0.22770733E-01 -0.20801866E-01 -0.73460667E-02
  0.30990293E-02  0.24689186E-01 -0.96773328E-02
  0.20864118E-01  0.99186766E-02  0.53950961E-02
 -0.64499059E-03 -0.19752902E-02  0.46098507E-02
 -0.19406098E-01  0.67597802E-02  0.31929599E-01
  0.59885683E-02 -0.13175899E-01  0.86060831E-02
  0.27620338E-01  0.98378209E-02  0.10739114E-01
 -0.15858748E-01 -0.92569079E-03 -0.53030935E-02
  0.17027677E-02 -0.58679290E-02 -0.32684890E-02
 -0.15656701E-01 -0.19495147E-01  0.23623845E-01
 -0.79410219E-02  0.20893369E-01  0.26617291E-02
  0.59124698E-02 -0.13613735E-01  0.19268642E-01
 -0.24362797E-01 -0.28153074E-01  0.12959672E-01
  0.12387180E-03  0.42200666E-02 -0.66492025E-02
  0.51971705E-02 -0.23085633E-01  0.16624829E-01
 -0.19214039E-01  0.10587978E-01 -0.65897909E-02
  0.14900708E-01  0.34238266E-02  0.22401499E-02
 -0.21819370E-01 -0.50261128E-02 -0.41769038E-01
 -0.11799063E-01 -0.17831224E-01  0.26523932E-01
 -0.74383491E-02  0.14081352E-01 -0.64336216E-01
 -0.16502620E-01 -0.25995963E-01  0.59789372E-02
  0.17837301E-01 -0.11259612E-01  0.20269336E-02
  0.57341051E-02 -0.45156499E-02 -0.34260998E-01
 -0.15125640E-01  0.96267604E-03 -0.31769276E-01
 -0.54381387E-01  0.72503348E-02  0.34671875E-02
  0.20134350E-01 -0.56331122E-02 -0.42923695E-02
  0.47445775E-02  0.19136976E-02 -0.11330124E-01
  0.13842993E-01  0.56007780E-02  0.68411146E-02
  0.85613668E-02  0.92943290E-03 -0.51534710E-02
 -0.65448620E-02 -0.28326666E-02  0.30355337E-02
  0.53105738E-02 -0.32271159E-02 -0.34726320E-02
  0.11538470E-01 -0.44932944E-02  0.47386953E-02
  0.29173643E-02  0.19519864E-02  0.68135409E-02
  0.10799623E-02 -0.97541653E-02 -0.47427104E-02
  0.34415068E-02  0.31679485E-02 -0.46884501E-02
 -0.57933132E-02 -0.26766643E-02  0.72310253E-02
  0.26162482E-02  0.12996221E-02 -0.42881744E-03
  0.10604097E-01 -0.29408448E-02 -0.28797388E-02
  0.10269666E-01 -0.31166919E-02 -0.40081713E-02
 -0.78738441E-02 -0.78116603E-02  0.29295923E-04
 -0.52965183E-03  0.78559961E-03  0.74466022E-02
  0.90215128E-02  0.25163120E-02  0.20388403E-02
 -0.61988459E-02  0.16496954E-02  0.38892379E-02
  0.29145668E-03 -0.40834265E-02  0.50847991E-02
 -0.59775670E-03 -0.35121063E-03 -0.44164819E-02
 -0.10721078E-02 -0.75929519E-03 -0.21913713E-02
 -0.32630759E-02 -0.12471140E-02 -0.31383798E-02
  0.27829481E-02  0.17172865E-02 -0.72958447E-02
  0.16988562E-02 -0.88841834E-03 -0.23760913E-02
  0.13394629E-02  0.11560833E-02  0.18071219E-02
  0.38667587E-02  0.11486138E-02  0.24027704E-02
 -0.36722625E-02 -0.13327749E-02  0.48806416E-02
  0.36413620E-02 -0.19055980E-02 -0.23238667E-02
 -0.58537942E-02  0.40693409E-02  0.22282340E-02
  0.59800625E-02  0.89593168E-03 -0.46157079E-02
  0.11236920E-03 -0.15451179E-02  0.16150924E-02
 -0.17435164E-02  0.14572683E-02  0.42963553E-02
 -0.13010728E-02  0.26116744E-03  0.27128511E-02
  0.29984040E-02 -0.10120110E-02  0.44817787E-02
 -0.68978318E-03 -0.44800278E-02 -0.14507361E-02
 -0.52547549E-02 -0.46775632E-02 -0.78015816E-02
 -0.50742574E-02  0.38837099E-04  0.67655191E-04
  0.13882787E-02 -0.20438307E-02 -0.14170085E-02
 -0.15431267E-02 -0.39074900E-02  0.65960101E-04
 -0.55002694E-02 -0.58152518E-02  0.10523602E-02
  0.52306935E-03 -0.42803731E-02 -0.18542913E-02
 -0.33622021E-02 -0.22168628E-02  0.10791750E-02
  0.77873767E-03  0.74228360E-02  0.29792731E-02
 -0.15304159E-02  0.33385702E-03 -0.53143268E-02
  0.14739686E-02 -0.15517450E-02  0.10596141E-02
  0.63930669E-02  0.62004712E-02 -0.25186325E-02
  0.84152674E-03  0.85605286E-03 -0.89481237E-03
 -0.98467381E-03  0.16790185E-02  0.84489348E-02
  0.14474175E-02  0.13951627E-02  0.34594689E-02
  0.13300433E-02  0.23237394E-02 -0.13332893E-02
 -0.22513712E-02 -0.44668279E-02  0.32308379E-02
  0.32540872E-02  0.33033795E-02 -0.78629456E-02
  0.23180884E-03  0.27574648E-02  0.26132254E-02
  0.63412101E-02  0.41390309E-02 -0.22029283E-02
 -0.48777390E-03 -0.25133195E-03 -0.10972799E-02
  0.00000000E+00  0.00000000E+00  0.00000000E+00
  0.00000000E+00  0.00000000E+00  0.00000000E+00
  0.00000000E+00  0.00000000E+00  0.00000000E+00
  0.00000000E+00  0.00000000E+00  0.00000000E+00
  0.00000000E+00  0.00000000E+00  0.00000000E+00
  0.00000000E+00  0.00000000E+00  0.00000000E+00
  0.00000000E+00  0.00000000E+00  0.00000000E+00
  0.00000000E+00  0.00000000E+00  0.00000000E+00
  0.00000000E+00  0.00000000E+00  0.00000000E+00
  0.00000000E+00  0.00000000E+00  0.00000000E+00
  0.00000000E+00  0.00000000E+00  0.00000000E+00
  0.00000000E+00  0.00000000E+00  0.00000000E+00
  0.00000000E+00  0.00000000E+00  0.00000000E+00
  0.00000000E+00  0.00000000E+00  0.00000000E+00
  0.00000000E+00  0.00000000E+00  0.00000000E+00
  0.00000000E+00  0.00000000E+00  0.00000000E+00
  0.00000000E+00  0.00000000E+00  0.00000000E+00
  0.00000000E+00  0.00000000E+00  0.00000000E+00
  0.00000000E+00  0.00000000E+00  0.00000000E+00
  0.00000000E+00  0.00000000E+00  0.00000000E+00
  0.00000000E+00  0.00000000E+00  0.00000000E+00
  0.00000000E+00  0.00000000E+00  0.00000000E+00
  0.00000000E+00  0.00000000E+00  0.00000000E+00
  0.00000000E+00  0.00000000E+00  0.00000000E+00
 
            1
    1.000000000000000     
 -0.47329321E+00  0.20948872E-02  0.15139101E-02 -0.47509761E+00
  0.49889791E+00  0.60268346E+00  0.39261729E+00
  0.57754123E+00  0.77018812E+00  0.40843535E+00
  0.12706921E+00  0.32743664E+00  0.61949073E+00
  0.98768840E+00  0.42537942E+00  0.62403064E+00
  0.90711489E+00  0.59591772E+00  0.55022466E+00
  0.88528021E+00  0.51697393E+00  0.50408460E+00
  0.66171960E+00  0.50418273E+00  0.73477939E+00
  0.74296526E+00  0.66369076E+00  0.74879812E+00
  0.83656038E+00  0.83907129E+00  0.67796047E+00
  0.73458167E+00  0.87889738E+00  0.63857799E+00
  0.52190853E+00  0.63371264E+00  0.78051551E+00
  0.37215407E+00  0.61054753E+00  0.79346599E+00
  0.20282835E+00  0.48233274E+00  0.42900557E+00
  0.18386453E+00  0.29043401E+00  0.42768101E+00
  0.26234946E+00  0.13935420E+00  0.48013963E+00
  0.10760592E+00  0.12378561E+00  0.48431227E+00
  0.98367709E+00  0.41503791E+00  0.80142575E+00
  0.84599138E+00  0.44861300E+00  0.77385470E+00
  0.86740926E+00  0.35709127E+00  0.44816820E+00
  0.89210642E+00  0.26856563E+00  0.49618256E+00
  0.34551487E+00  0.66345304E+00  0.48937124E+00
  0.45619134E+00  0.71110467E+00  0.45752923E+00
  0.90940383E+00  0.21382041E-01  0.50966884E+00
  0.55272234E-02  0.82589850E-01  0.54746496E+00
  0.15386258E-01  0.12290301E+00  0.61881651E+00
  0.94447346E+00  0.95205767E+00  0.62032561E+00
  0.61022084E+00  0.42123882E+00  0.56221222E+00
  0.53708343E+00  0.49714410E+00  0.60352644E+00
  0.64619723E+00  0.34934076E+00  0.67046285E+00
  0.53153565E+00  0.25484108E+00  0.68852584E+00
  0.70716224E+00  0.17637798E+00  0.73832136E+00
  0.78942214E+00  0.17641724E+00  0.78298309E+00
  0.66109827E+00  0.37910437E+00  0.49352818E+00
  0.53858017E+00  0.50832412E+00  0.49840329E+00
  0.31883280E+00  0.27016549E+00  0.57619389E+00
  0.33952201E+00  0.40769907E+00  0.61458492E+00
  0.15298419E+00  0.90200155E+00  0.60121398E+00
  0.21796981E+00  0.75833566E+00  0.57589243E+00
  0.35547599E+00  0.59324962E+00  0.66136123E+00
  0.33143582E+00  0.68561746E+00  0.61704599E+00
  0.71517261E+00  0.90266512E+00  0.50905965E+00
  0.84970215E+00  0.78002052E+00  0.50132072E+00
  0.38629290E-01  0.32074966E+00  0.73583976E+00
  0.60630707E-01  0.33470539E+00  0.68323097E+00
  0.88738689E+00  0.53565652E+00  0.38684413E+00
  0.91953335E-02  0.41887124E+00  0.40014532E+00
  0.21977028E+00  0.45987382E+00  0.71115148E+00
  0.33710167E+00  0.58484760E+00  0.73120078E+00
  0.51984834E+00  0.97801862E+00  0.64217773E+00
  0.51601503E+00  0.80426475E+00  0.63050722E+00
  0.55685244E+00  0.56108454E-01  0.77405111E+00
  0.45697437E+00  0.93505476E+00  0.79227979E+00
  0.67703227E+00  0.54622271E-01  0.40391985E+00
  0.72059306E+00  0.92377364E+00  0.43934495E+00
  0.17383043E+00  0.73471416E+00  0.45103362E+00
  0.90496383E-01  0.64241107E+00  0.48943434E+00
  0.56901746E+00  0.27605992E+00  0.37920863E+00
  0.73627894E+00  0.30479606E+00  0.38466209E+00
  0.40857683E+00  0.41282279E+00  0.33256116E+00
  0.31906860E+00  0.36998950E+00  0.37346856E+00
  0.41801523E+00  0.94395467E-01  0.52503030E+00
  0.42681917E+00  0.25934313E+00  0.51640642E+00
  0.28539077E+00  0.83444456E+00  0.39581428E+00
  0.20636233E+00  0.96257828E+00  0.42545958E+00
  0.77519435E+00  0.50659730E+00  0.60211070E+00
  0.86411041E+00  0.65531898E+00  0.62032141E+00
  0.32121853E+00  0.64215278E-01  0.74320316E+00
  0.17674878E+00  0.15444074E+00  0.72578395E+00
  0.92855668E+00  0.80608855E+00  0.74123199E+00
  0.79303448E+00  0.92286807E+00  0.73914483E+00
  0.12374125E+00  0.63888697E+00  0.80024215E+00
  0.12820109E+00  0.59512287E+00  0.84894493E+00
  0.14358862E+00  0.70073150E+00  0.73051855E+00
  0.14453255E+00  0.86731929E+00  0.75128324E+00
  0.53189234E+00  0.91666455E+00  0.55933928E+00
  0.49954297E+00  0.82872224E+00  0.51369872E+00
  0.98364374E+00  0.77944749E+00  0.39115122E+00
  0.83046134E+00  0.82856449E+00  0.38962284E+00
  0.36135149E+00  0.21360587E+00  0.64479991E+00
  0.34036804E+00  0.10036830E+00  0.68832834E+00
  0.13757079E+00  0.32064079E+00  0.31630815E+00
  0.11214314E+00  0.14480742E+00  0.34345671E+00
  0.23243145E+00  0.14892960E+00  0.30337557E+00
  0.24365927E-01  0.28103267E-01  0.26707564E+00
  0.42244662E-01  0.21702402E+00  0.24785213E+00
  0.88637712E+00  0.29199046E+00  0.31427824E+00
  0.85646653E+00  0.90716976E-01  0.32218564E+00
  0.75996097E+00  0.89697632E-01  0.23826912E+00
  0.78796400E+00  0.28948652E+00  0.24006178E+00
  0.62793192E+00  0.34210342E+00  0.29547206E+00
  0.57860068E+00  0.13405546E+00  0.30466513E+00
  0.48822031E+00  0.94834831E-01  0.23640474E+00
  0.49209809E+00  0.30373746E+00  0.21868446E+00
  0.39192700E+00  0.25097573E+00  0.26301980E+00
  0.22892444E+00  0.64491802E+00  0.30603397E+00
  0.27342393E+00  0.54969601E+00  0.25611649E+00
  0.23757472E+00  0.74404401E+00  0.25548650E+00
  0.31101475E-01  0.47262955E+00  0.28230246E+00
  0.42967493E-01  0.52994672E+00  0.22840835E+00
  0.95654166E+00  0.79857951E+00  0.24493189E+00
  0.96658559E+00  0.77369120E+00  0.30380568E+00
  0.80470891E+00  0.57282647E+00  0.30699566E+00
  0.77903627E+00  0.56091504E+00  0.25189464E+00
  0.70753316E+00  0.84222352E+00  0.24890169E+00
  0.70806777E+00  0.85303276E+00  0.30880462E+00
  0.46900061E+00  0.81233655E+00  0.27829385E+00
  0.52420692E+00  0.65438520E+00  0.31113417E+00
  0.50847872E+00  0.64548125E+00  0.25243367E+00
  0.12924606E+00  0.19170070E+00  0.31095814E+00
  0.19804638E-01  0.14832469E+00  0.27748998E+00
  0.87699726E+00  0.17944945E+00  0.29574625E+00
  0.76041954E+00  0.19098067E+00  0.26091002E+00
  0.61052928E+00  0.22918929E+00  0.28050807E+00
  0.49090008E+00  0.21639629E+00  0.24733418E+00
  0.20264948E+00  0.62577601E+00  0.26879613E+00
  0.53917569E-01  0.57919977E+00  0.26241458E+00
  0.94813983E+00  0.71262778E+00  0.27231399E+00
  0.80004174E+00  0.64903012E+00  0.27727903E+00
  0.69029278E+00  0.77753254E+00  0.27878026E+00
  0.54004100E+00  0.71942309E+00  0.28115155E+00
  0.49197982E+00  0.70582502E+00  0.40811771E+00
  0.37443908E-01  0.32988946E+00  0.63256376E+00
  0.92206756E+00  0.60933254E+00  0.51858948E+00
  0.70882104E+00  0.56010014E+00  0.75768606E+00
  0.83701794E+00  0.85668661E+00  0.64510479E+00
  0.43339652E+00  0.67031093E+00  0.77562380E+00
  0.18002779E+00  0.39068399E+00  0.40875717E+00
  0.17949985E+00  0.13227070E+00  0.46135661E+00
  0.92064195E+00  0.36276267E+00  0.77886269E+00
  0.83939809E+00  0.34846116E+00  0.48034014E+00
  0.44110891E+00  0.68011879E+00  0.48834426E+00
  0.96982893E+00  0.10908940E+00  0.51799898E+00
  0.15539654E-01  0.21392590E-01  0.60444677E+00
  0.61634231E+00  0.43783527E+00  0.59468610E+00
  0.61460305E+00  0.31447611E+00  0.69797461E+00
  0.73391101E+00  0.11007305E+00  0.76339279E+00
  0.56785881E+00  0.40323820E+00  0.50788443E+00
  0.28529726E+00  0.31847238E+00  0.60395866E+00
  0.23599745E+00  0.81995454E+00  0.60121313E+00
  0.39761939E+00  0.60795636E+00  0.63127107E+00
  0.80568995E+00  0.88369241E+00  0.49445963E+00
  0.10270994E+00  0.32147167E+00  0.71179878E+00
  0.90716219E+00  0.42995488E+00  0.39813582E+00
  0.27540921E+00  0.55855376E+00  0.70822114E+00
  0.56861163E+00  0.89594076E+00  0.62667568E+00
  0.46376449E+00  0.43874975E-01  0.78385056E+00
  0.67914891E+00  0.93691638E+00  0.41043712E+00
  0.17527407E+00  0.64355246E+00  0.47383524E+00
  0.65617383E+00  0.23825169E+00  0.39307018E+00
  0.41789550E+00  0.40266760E+00  0.36338239E+00
  0.36166852E+00  0.18990076E+00  0.52988030E+00
  0.20668806E+00  0.85231754E+00  0.41487852E+00
  0.87179366E+00  0.55003133E+00  0.60539422E+00
  0.22848466E+00  0.52342066E-01  0.73232531E+00
  0.82962042E+00  0.81635364E+00  0.72993223E+00
  0.15219907E+00  0.55768839E+00  0.81902805E+00
  0.95025475E-01  0.75886797E+00  0.75285272E+00
  0.53231148E+00  0.93097379E+00  0.52742125E+00
  0.89938410E+00  0.75266260E+00  0.37716085E+00
  0.41031926E+00  0.13616144E+00  0.66505699E+00
  0.28724800E+00  0.19329600E+00  0.82282000E-01
  0.52433900E+00  0.15756100E+00  0.13784200E+00
  0.30393100E+00  0.43697200E+00  0.16839800E+00
  0.52503300E+00  0.95176800E+00  0.35156000E-01
  0.77762300E+00  0.18011100E+00  0.84458000E-01
  0.26686000E-01  0.19177000E+00  0.14111900E+00
  0.76526300E+00  0.42205100E+00  0.17054200E+00
  0.28790000E-01  0.95442600E+00  0.46531000E-01
  0.28679200E+00  0.69157300E+00  0.79100000E-01
  0.54336800E+00  0.67855800E+00  0.13635500E+00
  0.28481400E+00  0.93681900E+00  0.17622500E+00
  0.53393100E+00  0.45081600E+00  0.43084000E-01
  0.79292100E+00  0.70241300E+00  0.84329000E-01
  0.52198000E-01  0.69382900E+00  0.14236800E+00
  0.78939000E+00  0.92700600E+00  0.17420200E+00
  0.14211000E-01  0.44507000E+00  0.45315000E-01
  0.30450700E+00  0.18862900E+00  0.15512900E+00
  0.53750000E+00  0.18474200E+00  0.62304000E-01
  0.77101100E+00  0.17836100E+00  0.15479000E+00
  0.32870000E-01  0.19718600E+00  0.70054000E-01
  0.29847400E+00  0.69199100E+00  0.15170300E+00
  0.55128300E+00  0.69727600E+00  0.60394000E-01
  0.78198200E+00  0.68202400E+00  0.15526000E+00
  0.44529000E-01  0.68719100E+00  0.70729000E-01
  0.00000000E+00  0.00000000E+00  0.00000000E+00
  0.00000000E+00  0.00000000E+00  0.00000000E+00
  0.00000000E+00  0.00000000E+00  0.00000000E+00
  0.00000000E+00  0.00000000E+00  0.00000000E+00
  0.00000000E+00  0.00000000E+00  0.00000000E+00
  0.00000000E+00  0.00000000E+00  0.00000000E+00
  0.00000000E+00  0.00000000E+00  0.00000000E+00
  0.00000000E+00  0.00000000E+00  0.00000000E+00
  0.00000000E+00  0.00000000E+00  0.00000000E+00
  0.00000000E+00  0.00000000E+00  0.00000000E+00
  0.00000000E+00  0.00000000E+00  0.00000000E+00
  0.00000000E+00  0.00000000E+00  0.00000000E+00
  0.00000000E+00  0.00000000E+00  0.00000000E+00
  0.00000000E+00  0.00000000E+00  0.00000000E+00
  0.00000000E+00  0.00000000E+00  0.00000000E+00
  0.00000000E+00  0.00000000E+00  0.00000000E+00
  0.00000000E+00  0.00000000E+00  0.00000000E+00
  0.00000000E+00  0.00000000E+00  0.00000000E+00
  0.00000000E+00  0.00000000E+00  0.00000000E+00
  0.00000000E+00  0.00000000E+00  0.00000000E+00
  0.00000000E+00  0.00000000E+00  0.00000000E+00
  0.00000000E+00  0.00000000E+00  0.00000000E+00
  0.00000000E+00  0.00000000E+00  0.00000000E+00
  0.00000000E+00  0.00000000E+00  0.00000000E+00
  0.00000000E+00  0.00000000E+00  0.00000000E+00
  0.00000000E+00  0.00000000E+00  0.00000000E+00
  0.00000000E+00  0.00000000E+00  0.00000000E+00
  0.00000000E+00  0.00000000E+00  0.00000000E+00
  0.00000000E+00  0.00000000E+00  0.00000000E+00
  0.00000000E+00  0.00000000E+00  0.00000000E+00
  0.00000000E+00  0.00000000E+00  0.00000000E+00
  0.00000000E+00  0.00000000E+00  0.00000000E+00
  0.00000000E+00  0.00000000E+00  0.00000000E+00
  0.00000000E+00  0.00000000E+00  0.00000000E+00
  0.00000000E+00  0.00000000E+00  0.00000000E+00
  0.00000000E+00  0.00000000E+00  0.00000000E+00
  0.00000000E+00  0.00000000E+00  0.00000000E+00
  0.00000000E+00  0.00000000E+00  0.00000000E+00
  0.00000000E+00  0.00000000E+00  0.00000000E+00
  0.00000000E+00  0.00000000E+00  0.00000000E+00
  0.00000000E+00  0.00000000E+00  0.00000000E+00
  0.00000000E+00  0.00000000E+00  0.00000000E+00
  0.00000000E+00  0.00000000E+00  0.00000000E+00
  0.00000000E+00  0.00000000E+00  0.00000000E+00
  0.00000000E+00  0.00000000E+00  0.00000000E+00
  0.00000000E+00  0.00000000E+00  0.00000000E+00
  0.00000000E+00  0.00000000E+00  0.00000000E+00
  0.00000000E+00  0.00000000E+00  0.00000000E+00
  0.00000000E+00  0.00000000E+00  0.00000000E+00
  0.00000000E+00  0.00000000E+00  0.00000000E+00
  0.00000000E+00  0.00000000E+00  0.00000000E+00
  0.00000000E+00  0.00000000E+00  0.00000000E+00
  0.00000000E+00  0.00000000E+00  0.00000000E+00
  0.00000000E+00  0.00000000E+00  0.00000000E+00
  0.00000000E+00  0.00000000E+00  0.00000000E+00
  0.00000000E+00  0.00000000E+00  0.00000000E+00
  0.00000000E+00  0.00000000E+00  0.00000000E+00
  0.00000000E+00  0.00000000E+00  0.00000000E+00
  0.00000000E+00  0.00000000E+00  0.00000000E+00
  0.00000000E+00  0.00000000E+00  0.00000000E+00
  0.00000000E+00  0.00000000E+00  0.00000000E+00
  0.00000000E+00  0.00000000E+00  0.00000000E+00
  0.00000000E+00  0.00000000E+00  0.00000000E+00
  0.00000000E+00  0.00000000E+00  0.00000000E+00
  0.00000000E+00  0.00000000E+00  0.00000000E+00
  0.00000000E+00  0.00000000E+00  0.00000000E+00
  0.00000000E+00  0.00000000E+00  0.00000000E+00
  0.00000000E+00  0.00000000E+00  0.00000000E+00
  0.00000000E+00  0.00000000E+00  0.00000000E+00
  0.00000000E+00  0.00000000E+00  0.00000000E+00
  0.00000000E+00  0.00000000E+00  0.00000000E+00
  0.00000000E+00  0.00000000E+00  0.00000000E+00
  0.00000000E+00  0.00000000E+00  0.00000000E+00
  0.00000000E+00  0.00000000E+00  0.00000000E+00
  0.00000000E+00  0.00000000E+00  0.00000000E+00
  0.00000000E+00  0.00000000E+00  0.00000000E+00
  0.00000000E+00  0.00000000E+00  0.00000000E+00
  0.00000000E+00  0.00000000E+00  0.00000000E+00
  0.00000000E+00  0.00000000E+00  0.00000000E+00
  0.00000000E+00  0.00000000E+00  0.00000000E+00
  0.00000000E+00  0.00000000E+00  0.00000000E+00
  0.00000000E+00  0.00000000E+00  0.00000000E+00
  0.00000000E+00  0.00000000E+00  0.00000000E+00
  0.00000000E+00  0.00000000E+00  0.00000000E+00
  0.00000000E+00  0.00000000E+00  0.00000000E+00
  0.00000000E+00  0.00000000E+00  0.00000000E+00
  0.00000000E+00  0.00000000E+00  0.00000000E+00
  0.00000000E+00  0.00000000E+00  0.00000000E+00
  0.00000000E+00  0.00000000E+00  0.00000000E+00
  0.00000000E+00  0.00000000E+00  0.00000000E+00
  0.00000000E+00  0.00000000E+00  0.00000000E+00
  0.00000000E+00  0.00000000E+00  0.00000000E+00
  0.00000000E+00  0.00000000E+00  0.00000000E+00
  0.00000000E+00  0.00000000E+00  0.00000000E+00
  0.00000000E+00  0.00000000E+00  0.00000000E+00
  0.00000000E+00  0.00000000E+00  0.00000000E+00
  0.00000000E+00  0.00000000E+00  0.00000000E+00
  0.00000000E+00  0.00000000E+00  0.00000000E+00
  0.00000000E+00  0.00000000E+00  0.00000000E+00
  0.00000000E+00  0.00000000E+00  0.00000000E+00
  0.00000000E+00  0.00000000E+00  0.00000000E+00
  0.00000000E+00  0.00000000E+00  0.00000000E+00
  0.00000000E+00  0.00000000E+00  0.00000000E+00
  0.00000000E+00  0.00000000E+00  0.00000000E+00
  0.00000000E+00  0.00000000E+00  0.00000000E+00
  0.00000000E+00  0.00000000E+00  0.00000000E+00
  0.00000000E+00  0.00000000E+00  0.00000000E+00
  0.00000000E+00  0.00000000E+00  0.00000000E+00
  0.00000000E+00  0.00000000E+00  0.00000000E+00
  0.00000000E+00  0.00000000E+00  0.00000000E+00
  0.00000000E+00  0.00000000E+00  0.00000000E+00
  0.00000000E+00  0.00000000E+00  0.00000000E+00
  0.00000000E+00  0.00000000E+00  0.00000000E+00
  0.00000000E+00  0.00000000E+00  0.00000000E+00
  0.00000000E+00  0.00000000E+00  0.00000000E+00
  0.00000000E+00  0.00000000E+00  0.00000000E+00
  0.00000000E+00  0.00000000E+00  0.00000000E+00
  0.00000000E+00  0.00000000E+00  0.00000000E+00
  0.00000000E+00  0.00000000E+00  0.00000000E+00
  0.00000000E+00  0.00000000E+00  0.00000000E+00
  0.00000000E+00  0.00000000E+00  0.00000000E+00
  0.00000000E+00  0.00000000E+00  0.00000000E+00
  0.00000000E+00  0.00000000E+00  0.00000000E+00
  0.00000000E+00  0.00000000E+00  0.00000000E+00
  0.00000000E+00  0.00000000E+00  0.00000000E+00
  0.00000000E+00  0.00000000E+00  0.00000000E+00
  0.00000000E+00  0.00000000E+00  0.00000000E+00
  0.00000000E+00  0.00000000E+00  0.00000000E+00
  0.00000000E+00  0.00000000E+00  0.00000000E+00
  0.00000000E+00  0.00000000E+00  0.00000000E+00
  0.00000000E+00  0.00000000E+00  0.00000000E+00
  0.00000000E+00  0.00000000E+00  0.00000000E+00
  0.00000000E+00  0.00000000E+00  0.00000000E+00
  0.00000000E+00  0.00000000E+00  0.00000000E+00
  0.00000000E+00  0.00000000E+00  0.00000000E+00
  0.00000000E+00  0.00000000E+00  0.00000000E+00
  0.00000000E+00  0.00000000E+00  0.00000000E+00
  0.00000000E+00  0.00000000E+00  0.00000000E+00
  0.00000000E+00  0.00000000E+00  0.00000000E+00
  0.00000000E+00  0.00000000E+00  0.00000000E+00
  0.00000000E+00  0.00000000E+00  0.00000000E+00
  0.00000000E+00  0.00000000E+00  0.00000000E+00
  0.00000000E+00  0.00000000E+00  0.00000000E+00
  0.00000000E+00  0.00000000E+00  0.00000000E+00
  0.00000000E+00  0.00000000E+00  0.00000000E+00
  0.00000000E+00  0.00000000E+00  0.00000000E+00
  0.00000000E+00  0.00000000E+00  0.00000000E+00
  0.00000000E+00  0.00000000E+00  0.00000000E+00
  0.00000000E+00  0.00000000E+00  0.00000000E+00
  0.00000000E+00  0.00000000E+00  0.00000000E+00
  0.00000000E+00  0.00000000E+00  0.00000000E+00
  0.00000000E+00  0.00000000E+00  0.00000000E+00
  0.00000000E+00  0.00000000E+00  0.00000000E+00
  0.00000000E+00  0.00000000E+00  0.00000000E+00
  0.00000000E+00  0.00000000E+00  0.00000000E+00
  0.00000000E+00  0.00000000E+00  0.00000000E+00
  0.00000000E+00  0.00000000E+00  0.00000000E+00
  0.00000000E+00  0.00000000E+00  0.00000000E+00
  0.00000000E+00  0.00000000E+00  0.00000000E+00
  0.00000000E+00  0.00000000E+00  0.00000000E+00
  0.00000000E+00  0.00000000E+00  0.00000000E+00
  0.00000000E+00  0.00000000E+00  0.00000000E+00
  0.00000000E+00  0.00000000E+00  0.00000000E+00
  0.00000000E+00  0.00000000E+00  0.00000000E+00
  0.00000000E+00  0.00000000E+00  0.00000000E+00
  0.00000000E+00  0.00000000E+00  0.00000000E+00
  0.00000000E+00  0.00000000E+00  0.00000000E+00
  0.00000000E+00  0.00000000E+00  0.00000000E+00
  0.00000000E+00  0.00000000E+00  0.00000000E+00
  0.00000000E+00  0.00000000E+00  0.00000000E+00
  0.00000000E+00  0.00000000E+00  0.00000000E+00
  0.00000000E+00  0.00000000E+00  0.00000000E+00
  0.00000000E+00  0.00000000E+00  0.00000000E+00
  0.00000000E+00  0.00000000E+00  0.00000000E+00
  0.00000000E+00  0.00000000E+00  0.00000000E+00
  0.00000000E+00  0.00000000E+00  0.00000000E+00
  0.00000000E+00  0.00000000E+00  0.00000000E+00
  0.00000000E+00  0.00000000E+00  0.00000000E+00
  0.00000000E+00  0.00000000E+00  0.00000000E+00
  0.00000000E+00  0.00000000E+00  0.00000000E+00
  0.00000000E+00  0.00000000E+00  0.00000000E+00
  0.00000000E+00  0.00000000E+00  0.00000000E+00
  0.00000000E+00  0.00000000E+00  0.00000000E+00
  0.00000000E+00  0.00000000E+00  0.00000000E+00
  0.00000000E+00  0.00000000E+00  0.00000000E+00
  0.00000000E+00  0.00000000E+00  0.00000000E+00
  0.00000000E+00  0.00000000E+00  0.00000000E+00
  0.00000000E+00  0.00000000E+00  0.00000000E+00
  0.00000000E+00  0.00000000E+00  0.00000000E+00
  0.00000000E+00  0.00000000E+00  0.00000000E+00
  0.00000000E+00  0.00000000E+00  0.00000000E+00
  0.00000000E+00  0.00000000E+00  0.00000000E+00
  0.00000000E+00  0.00000000E+00  0.00000000E+00
  0.00000000E+00  0.00000000E+00  0.00000000E+00
  0.00000000E+00  0.00000000E+00  0.00000000E+00
  0.00000000E+00  0.00000000E+00  0.00000000E+00
  0.00000000E+00  0.00000000E+00  0.00000000E+00
  0.00000000E+00  0.00000000E+00  0.00000000E+00
  0.00000000E+00  0.00000000E+00  0.00000000E+00
  0.00000000E+00  0.00000000E+00  0.00000000E+00
  0.00000000E+00  0.00000000E+00  0.00000000E+00
  0.00000000E+00  0.00000000E+00  0.00000000E+00
  0.00000000E+00  0.00000000E+00  0.00000000E+00
  0.00000000E+00  0.00000000E+00  0.00000000E+00
  0.00000000E+00  0.00000000E+00  0.00000000E+00
  0.00000000E+00  0.00000000E+00  0.00000000E+00
  0.00000000E+00  0.00000000E+00  0.00000000E+00
  0.00000000E+00  0.00000000E+00  0.00000000E+00
  0.00000000E+00  0.00000000E+00  0.00000000E+00
  0.00000000E+00  0.00000000E+00  0.00000000E+00
  0.00000000E+00  0.00000000E+00  0.00000000E+00
  0.00000000E+00  0.00000000E+00  0.00000000E+00
  0.00000000E+00  0.00000000E+00  0.00000000E+00
  0.00000000E+00  0.00000000E+00  0.00000000E+00
  0.00000000E+00  0.00000000E+00  0.00000000E+00
  0.00000000E+00  0.00000000E+00  0.00000000E+00
  0.00000000E+00  0.00000000E+00  0.00000000E+00
  0.00000000E+00  0.00000000E+00  0.00000000E+00
  0.00000000E+00  0.00000000E+00  0.00000000E+00
  0.00000000E+00  0.00000000E+00  0.00000000E+00
  0.00000000E+00  0.00000000E+00  0.00000000E+00
  0.00000000E+00  0.00000000E+00  0.00000000E+00
  0.00000000E+00  0.00000000E+00  0.00000000E+00
  0.00000000E+00  0.00000000E+00  0.00000000E+00
  0.00000000E+00  0.00000000E+00  0.00000000E+00
  0.00000000E+00  0.00000000E+00  0.00000000E+00
  0.00000000E+00  0.00000000E+00  0.00000000E+00
  0.00000000E+00  0.00000000E+00  0.00000000E+00
  0.00000000E+00  0.00000000E+00  0.00000000E+00
  0.00000000E+00  0.00000000E+00  0.00000000E+00
  0.00000000E+00  0.00000000E+00  0.00000000E+00
  0.00000000E+00  0.00000000E+00  0.00000000E+00
  0.00000000E+00  0.00000000E+00  0.00000000E+00
  0.00000000E+00  0.00000000E+00  0.00000000E+00
  0.00000000E+00  0.00000000E+00  0.00000000E+00
  0.00000000E+00  0.00000000E+00  0.00000000E+00
  0.00000000E+00  0.00000000E+00  0.00000000E+00
  0.00000000E+00  0.00000000E+00  0.00000000E+00
  0.00000000E+00  0.00000000E+00  0.00000000E+00
  0.00000000E+00  0.00000000E+00  0.00000000E+00
  0.00000000E+00  0.00000000E+00  0.00000000E+00
  0.00000000E+00  0.00000000E+00  0.00000000E+00
  0.00000000E+00  0.00000000E+00  0.00000000E+00
  0.00000000E+00  0.00000000E+00  0.00000000E+00
  0.00000000E+00  0.00000000E+00  0.00000000E+00
  0.00000000E+00  0.00000000E+00  0.00000000E+00
  0.00000000E+00  0.00000000E+00  0.00000000E+00
  0.00000000E+00  0.00000000E+00  0.00000000E+00
  0.00000000E+00  0.00000000E+00  0.00000000E+00
  0.00000000E+00  0.00000000E+00  0.00000000E+00
  0.00000000E+00  0.00000000E+00  0.00000000E+00
  0.00000000E+00  0.00000000E+00  0.00000000E+00
  0.00000000E+00  0.00000000E+00  0.00000000E+00
  0.00000000E+00  0.00000000E+00  0.00000000E+00
  0.00000000E+00  0.00000000E+00  0.00000000E+00
  0.00000000E+00  0.00000000E+00  0.00000000E+00
  0.00000000E+00  0.00000000E+00  0.00000000E+00
  0.00000000E+00  0.00000000E+00  0.00000000E+00
  0.00000000E+00  0.00000000E+00  0.00000000E+00
  0.00000000E+00  0.00000000E+00  0.00000000E+00
  0.00000000E+00  0.00000000E+00  0.00000000E+00
  0.00000000E+00  0.00000000E+00  0.00000000E+00
  0.00000000E+00  0.00000000E+00  0.00000000E+00
  0.00000000E+00  0.00000000E+00  0.00000000E+00
  0.00000000E+00  0.00000000E+00  0.00000000E+00
  0.00000000E+00  0.00000000E+00  0.00000000E+00
  0.00000000E+00  0.00000000E+00  0.00000000E+00
  0.00000000E+00  0.00000000E+00  0.00000000E+00
  0.00000000E+00  0.00000000E+00  0.00000000E+00
  0.00000000E+00  0.00000000E+00  0.00000000E+00
  0.00000000E+00  0.00000000E+00  0.00000000E+00
  0.00000000E+00  0.00000000E+00  0.00000000E+00
  0.00000000E+00  0.00000000E+00  0.00000000E+00
  0.00000000E+00  0.00000000E+00  0.00000000E+00
  0.00000000E+00  0.00000000E+00  0.00000000E+00
  0.00000000E+00  0.00000000E+00  0.00000000E+00
  0.00000000E+00  0.00000000E+00  0.00000000E+00
  0.00000000E+00  0.00000000E+00  0.00000000E+00
  0.00000000E+00  0.00000000E+00  0.00000000E+00
  0.00000000E+00  0.00000000E+00  0.00000000E+00
  0.00000000E+00  0.00000000E+00  0.00000000E+00
  0.00000000E+00  0.00000000E+00  0.00000000E+00
  0.00000000E+00  0.00000000E+00  0.00000000E+00
  0.00000000E+00  0.00000000E+00  0.00000000E+00
  0.00000000E+00  0.00000000E+00  0.00000000E+00
  0.00000000E+00  0.00000000E+00  0.00000000E+00
  0.00000000E+00  0.00000000E+00  0.00000000E+00
  0.00000000E+00  0.00000000E+00  0.00000000E+00
  0.00000000E+00  0.00000000E+00  0.00000000E+00
  0.00000000E+00  0.00000000E+00  0.00000000E+00
  0.00000000E+00  0.00000000E+00  0.00000000E+00
  0.00000000E+00  0.00000000E+00  0.00000000E+00
  0.00000000E+00  0.00000000E+00  0.00000000E+00
  0.00000000E+00  0.00000000E+00  0.00000000E+00
  0.00000000E+00  0.00000000E+00  0.00000000E+00
  0.00000000E+00  0.00000000E+00  0.00000000E+00
  0.00000000E+00  0.00000000E+00  0.00000000E+00
  0.00000000E+00  0.00000000E+00  0.00000000E+00
  0.00000000E+00  0.00000000E+00  0.00000000E+00
  0.00000000E+00  0.00000000E+00  0.00000000E+00
  0.00000000E+00  0.00000000E+00  0.00000000E+00
  0.00000000E+00  0.00000000E+00  0.00000000E+00
  0.00000000E+00  0.00000000E+00  0.00000000E+00
  0.00000000E+00  0.00000000E+00  0.00000000E+00
  0.00000000E+00  0.00000000E+00  0.00000000E+00
  0.00000000E+00  0.00000000E+00  0.00000000E+00
  0.00000000E+00  0.00000000E+00  0.00000000E+00
  0.00000000E+00  0.00000000E+00  0.00000000E+00
  0.00000000E+00  0.00000000E+00  0.00000000E+00
  0.00000000E+00  0.00000000E+00  0.00000000E+00
  0.00000000E+00  0.00000000E+00  0.00000000E+00
  0.00000000E+00  0.00000000E+00  0.00000000E+00
  0.00000000E+00  0.00000000E+00  0.00000000E+00
  0.00000000E+00  0.00000000E+00  0.00000000E+00
  0.00000000E+00  0.00000000E+00  0.00000000E+00
  0.00000000E+00  0.00000000E+00  0.00000000E+00
  0.00000000E+00  0.00000000E+00  0.00000000E+00
  0.00000000E+00  0.00000000E+00  0.00000000E+00
  0.00000000E+00  0.00000000E+00  0.00000000E+00
  0.00000000E+00  0.00000000E+00  0.00000000E+00
  0.00000000E+00  0.00000000E+00  0.00000000E+00
  0.00000000E+00  0.00000000E+00  0.00000000E+00
  0.00000000E+00  0.00000000E+00  0.00000000E+00
  0.00000000E+00  0.00000000E+00  0.00000000E+00
  0.00000000E+00  0.00000000E+00  0.00000000E+00
  0.00000000E+00  0.00000000E+00  0.00000000E+00
  0.00000000E+00  0.00000000E+00  0.00000000E+00
  0.00000000E+00  0.00000000E+00  0.00000000E+00
  0.00000000E+00  0.00000000E+00  0.00000000E+00
  0.00000000E+00  0.00000000E+00  0.00000000E+00
  0.00000000E+00  0.00000000E+00  0.00000000E+00
  0.00000000E+00  0.00000000E+00  0.00000000E+00
  0.00000000E+00  0.00000000E+00  0.00000000E+00
  0.00000000E+00  0.00000000E+00  0.00000000E+00
  0.00000000E+00  0.00000000E+00  0.00000000E+00
  0.00000000E+00  0.00000000E+00  0.00000000E+00
  0.00000000E+00  0.00000000E+00  0.00000000E+00
  0.00000000E+00  0.00000000E+00  0.00000000E+00
  0.00000000E+00  0.00000000E+00  0.00000000E+00
  0.00000000E+00  0.00000000E+00  0.00000000E+00
  0.00000000E+00  0.00000000E+00  0.00000000E+00
  0.00000000E+00  0.00000000E+00  0.00000000E+00
  0.00000000E+00  0.00000000E+00  0.00000000E+00
  0.00000000E+00  0.00000000E+00  0.00000000E+00
  0.00000000E+00  0.00000000E+00  0.00000000E+00
  0.00000000E+00  0.00000000E+00  0.00000000E+00
  0.00000000E+00  0.00000000E+00  0.00000000E+00
  0.00000000E+00  0.00000000E+00  0.00000000E+00
  0.00000000E+00  0.00000000E+00  0.00000000E+00
  0.00000000E+00  0.00000000E+00  0.00000000E+00
  0.00000000E+00  0.00000000E+00  0.00000000E+00
  0.00000000E+00  0.00000000E+00  0.00000000E+00
  0.00000000E+00  0.00000000E+00  0.00000000E+00
  0.00000000E+00  0.00000000E+00  0.00000000E+00
  0.00000000E+00  0.00000000E+00  0.00000000E+00
  0.00000000E+00  0.00000000E+00  0.00000000E+00
  0.00000000E+00  0.00000000E+00  0.00000000E+00
  0.00000000E+00  0.00000000E+00  0.00000000E+00
  0.00000000E+00  0.00000000E+00  0.00000000E+00
  0.00000000E+00  0.00000000E+00  0.00000000E+00
  0.00000000E+00  0.00000000E+00  0.00000000E+00
  0.00000000E+00  0.00000000E+00  0.00000000E+00
  0.00000000E+00  0.00000000E+00  0.00000000E+00
  0.00000000E+00  0.00000000E+00  0.00000000E+00
  0.00000000E+00  0.00000000E+00  0.00000000E+00
  0.00000000E+00  0.00000000E+00  0.00000000E+00
  0.00000000E+00  0.00000000E+00  0.00000000E+00
  0.00000000E+00  0.00000000E+00  0.00000000E+00
