1 
1.0 
9.840000 0.000000 0.000000 
0.000000 17.021700 0.000000 
0.000000 0.000000 35.127961 
H C O 
176 24 60 
Selective Dynamics
Direct 
0.177215 0.641563 0.429464 T T T 
0.310865 0.643001 0.405160 T T T 
0.667198 0.948183 0.597966 T T T 
0.733426 1.017012 0.617823 T T T 
0.788778 0.319420 0.680551 T T T 
0.729475 0.282898 0.639804 T T T 
0.364085 0.527792 0.422454 T T T 
0.427157 0.479193 0.452863 T T T 
0.783863 0.789504 0.443642 T T T 
0.816396 0.854355 0.474957 T T T 
0.567355 0.148608 0.639931 T T T 
0.669504 0.137476 0.605417 T T T 
0.101609 0.220774 0.653479 T T T 
0.064986 0.309138 0.645301 T T T 
0.388158 0.595127 0.584241 T T T 
0.294919 0.558382 0.618557 T T T 
0.775872 0.886124 0.537970 T T T 
0.923712 0.835187 0.543489 T T T 
0.594913 0.670194 0.622220 T T T 
0.638996 0.592655 0.600872 T T T 
0.113078 0.448576 0.431090 T T T 
0.028922 0.401710 0.466060 T T T 
0.478717 0.771914 0.439942 T T T 
0.597762 0.720671 0.418503 T T T 
0.233126 0.638724 0.695167 T T T 
0.266206 0.543390 0.696779 T T T 
0.563876 0.672622 0.506865 T T T 
0.489119 0.676070 0.467120 T T T 
0.461463 0.074278 0.405129 T T T 
0.534714 0.041224 0.441548 T T T 
0.098451 0.376696 0.599177 T T T 
-0.028182 0.425870 0.616614 T T T 
0.952490 0.543411 0.368259 T T T 
0.902301 0.615938 0.343172 T T T 
0.378605 0.679582 0.631522 T T T 
0.454873 0.708482 0.672721 T T T 
0.838906 0.138026 0.552886 T T T 
0.709186 0.084667 0.543136 T T T 
0.216225 0.924835 0.532306 T T T 
0.304977 0.870060 0.554977 T T T 
0.783937 0.595970 0.512923 T T T 
0.802485 0.511936 0.503263 T T T 
0.619387 0.430333 0.514132 T T T 
0.664989 0.344098 0.528937 T T T 
0.652522 0.954614 0.506934 T T T 
0.576112 0.998220 0.537957 T T T 
0.312771 0.855592 0.441850 T T T 
0.344825 0.872832 0.487010 T T T 
0.203021 0.323233 0.445317 T T T 
0.309767 0.250746 0.446366 T T T 
0.491884 0.184063 0.447411 T T T 
0.487317 0.237921 0.486386 T T T 
0.684081 0.691544 0.559259 T T T 
0.754447 0.748523 0.529623 T T T 
0.002188 0.182651 0.533684 T T T 
0.007455 0.086794 0.545398 T T T 
0.845223 0.645298 0.409429 T T T 
0.739994 0.614018 0.436777 T T T 
0.573505 0.385652 0.420261 T T T 
0.587534 0.300218 0.436043 T T T 
0.159603 0.036301 0.511537 T T T 
0.016364 -0.001904 0.502466 T T T 
0.504186 0.549780 0.497902 T T T 
0.404118 0.492112 0.514034 T T T 
0.171481 0.534689 0.390351 T T T 
0.154490 0.452524 0.366977 T T T 
0.145785 0.754396 0.550773 T T T 
0.045566 0.742242 0.586606 T T T 
0.404291 0.045226 0.635798 T T T 
0.284323 0.106657 0.623042 T T T 
0.520706 0.950731 0.652932 T T T 
0.370715 0.911319 0.643688 T T T 
0.961698 0.582275 0.617878 T T T 
0.836068 0.640063 0.612816 T T T 
-0.020992 0.579835 0.522674 T T T 
0.030125 0.617365 0.564731 T T T 
0.083465 0.744215 0.683591 T T T 
0.048863 0.687707 0.647879 T T T 
0.680167 0.424485 0.576498 T T T 
0.708933 0.408436 0.618769 T T T 
0.824134 0.379329 0.492778 T T T 
0.765686 0.358105 0.451098 T T T 
-0.057802 0.261563 0.476309 T T T 
0.090246 0.223466 0.476986 T T T 
0.438265 0.630474 0.730909 T T T 
0.468451 0.719474 0.744281 T T T 
0.098951 0.819340 0.431485 T T T 
0.143829 0.908104 0.419012 T T T 
0.194350 0.375777 0.544268 T T T 
0.231765 0.295963 0.566933 T T T 
0.174353 0.650597 0.524390 T T T 
0.330014 0.686686 0.513347 T T T 
0.426656 0.293544 0.606641 T T T 
0.409284 0.197632 0.597757 T T T 
0.703205 0.524346 0.399837 T T T 
0.570351 0.505463 0.424386 T T T 
0.105705 0.707635 0.485111 T T T 
-0.031249 0.677267 0.459879 T T T 
0.538555 0.411364 0.616575 T T T 
0.549888 0.347364 0.652487 T T T 
0.937712 0.096280 0.466908 T T T 
0.823283 0.039482 0.453303 T T T 
0.061363 0.147350 0.594136 T T T 
0.107771 0.072438 0.624019 T T T 
0.192166 0.444530 0.645334 T T T 
0.353785 0.438055 0.647414 T T T 
0.285981 0.121577 0.471211 T T T 
0.337835 0.095832 0.511317 T T T 
0.205240 0.460286 0.496584 T T T 
0.174472 0.511598 0.533030 T T T 
0.383874 -0.002183 0.543578 T T T 
0.420679 0.061465 0.574857 T T T 
0.666444 0.907826 0.444534 T T T 
0.512240 0.915672 0.458144 T T T 
0.649609 0.218561 0.545309 T T T 
0.509989 0.258583 0.552703 T T T 
0.881371 0.262942 0.734367 T T T 
0.982984 0.280942 0.701028 T T T 
0.365475 0.793280 0.621706 T T T 
0.239922 0.826911 0.602468 T T T 
1.015594 0.787511 0.334327 T T T 
0.867212 0.736901 0.315399 T T T 
0.999677 0.758557 0.281607 T T T 
0.953086 0.907532 0.306829 T T T 
0.787610 0.864062 0.314924 T T T 
0.774931 0.808841 0.249523 T T T 
0.933684 0.852446 0.237472 T T T 
0.835244 0.992625 0.245093 T T T 
0.686706 0.945224 0.265001 T T T 
0.631785 0.880217 0.205450 T T T 
0.768485 0.932373 0.180771 T T T 
0.665244 1.064803 0.202611 T T T 
0.521856 1.014944 0.222011 T T T 
0.560744 1.007976 0.171291 T T T 
0.265638 -0.000876 0.321038 T T T 
0.351687 0.076925 0.296642 T T T 
0.361164 0.062325 0.348120 T T T 
0.093650 0.098847 0.348778 T T T 
0.109865 0.115200 0.300243 T T T 
0.272366 0.200211 0.366244 T T T 
0.121894 0.234408 0.346250 T T T 
0.237777 0.237346 0.277800 T T T 
0.393556 0.223842 0.304167 T T T 
0.318800 0.351376 0.341996 T T T 
0.167309 0.351510 0.314815 T T T 
0.316078 0.447143 0.280151 T T T 
0.343910 0.355246 0.252916 T T T 
0.461700 0.391870 0.289487 T T T 
0.389030 0.611862 0.350385 T T T 
0.487298 0.514990 0.348490 T T T 
0.558758 0.608272 0.365180 T T T 
0.436880 0.581397 0.283073 T T T 
0.615465 0.572180 0.293668 T T T 
0.561402 0.709986 0.267467 T T T 
0.606988 0.714344 0.317323 T T T 
0.351727 0.742340 0.334165 T T T 
0.314993 0.706507 0.287951 T T T 
0.301231 0.851465 0.289669 T T T 
0.426568 0.828485 0.257989 T T T 
0.465432 0.931569 0.321526 T T T 
0.606183 0.877997 0.308018 T T T 
0.501543 0.843847 0.345197 T T T 
0.702715 0.072576 0.377394 T T T 
0.643082 0.165144 0.367274 T T T 
0.579405 0.085426 0.339541 T T T 
0.815101 0.056174 0.314084 T T T 
0.885294 0.138211 0.338409 T T T 
0.675126 0.144725 0.272021 T T T 
0.858313 0.163803 0.269480 T T T 
0.718001 0.254115 0.330699 T T T 
0.651740 0.278205 0.284223 T T T 
0.892596 0.310696 0.264441 T T T 
0.951299 0.274467 0.308078 T T T 
0.944589 0.423374 0.314530 T T T 
0.837917 0.373804 0.346882 T T T 
0.763304 0.420476 0.305564 T T T 
0.952692 0.780363 0.307840 T T T 
0.881141 0.859550 0.297327 T T T 
0.843239 0.863910 0.255232 T T T 
0.767719 0.938709 0.243133 T T T 
0.692755 0.934193 0.205323 T T T 
0.605241 1.010535 0.200186 T T T 
0.294017 0.061686 0.323424 T T T 
0.172673 0.117055 0.326721 T T T 
0.210156 0.200837 0.338161 T T T 
0.287298 0.245989 0.306781 T T T 
0.281584 0.336404 0.312816 T T T 
0.352180 0.383866 0.281651 T T T 
0.486920 0.582000 0.344115 T T T 
0.521395 0.602584 0.302682 T T T 
0.530520 0.694667 0.296833 T T T 
0.393480 0.738506 0.304269 T T T 
0.404284 0.825387 0.289244 T T T 
0.497779 0.872183 0.316194 T T T 
0.672001 0.108952 0.353465 T T T 
0.792298 0.115848 0.324903 T T T 
0.766798 0.163306 0.288613 T T T 
0.742441 0.250142 0.298958 T T T 
0.865479 0.306740 0.294991 T T T 
0.853013 0.386400 0.315831 T T T 
0.248348 0.604342 0.418104 T T T 
0.704054 0.961036 0.623937 T T T 
0.724788 0.331697 0.657586 T T T 
0.420490 0.475594 0.423809 T T T 
0.812198 0.847508 0.444891 T T T 
0.663595 0.157701 0.632680 T T T 
0.108044 0.275245 0.666534 T T T 
0.312982 0.607166 0.603429 T T T 
0.832333 0.838735 0.527408 T T T 
0.667786 0.649752 0.603378 T T T 
0.120060 0.425472 0.459124 T T T 
0.502640 0.718658 0.427617 T T T 
0.264453 0.595284 0.713960 T T T 
0.478294 0.652381 0.495679 T T T 
0.458510 0.081924 0.433436 T T T 
0.061439 0.404182 0.625762 T T T 
0.874296 0.581570 0.366272 T T T 
0.454586 0.714639 0.643428 T T T 
0.734482 0.134472 0.556570 T T T 
0.313417 0.904045 0.530864 T T T 
0.850194 0.563357 0.497303 T T T 
0.706077 0.405443 0.527051 T T T 
0.665422 0.965175 0.534094 T T T 
0.395878 0.855794 0.460756 T T T 
0.205351 0.262239 0.438913 T T T 
0.474203 0.244086 0.456726 T T T 
0.715519 0.691701 0.530822 T T T 
-0.001319 0.142320 0.557288 T T T 
0.792009 0.664876 0.433516 T T T 
0.641346 0.341811 0.421532 T T T 
0.087318 0.001659 0.523608 T T T 
0.495851 0.488630 0.498580 T T T 
0.101315 0.489845 0.384296 T T T 
0.085565 0.784668 0.569980 T T T 
0.390673 0.098909 0.621589 T T T 
0.418383 0.957543 0.657646 T T T 
0.940658 0.639019 0.615133 T T T 
0.062470 0.588349 0.542117 T T T 
0.132605 0.713907 0.663158 T T T 
0.679109 0.455619 0.601776 T T T 
0.857582 0.356684 0.467445 T T T 
-0.006287 0.212236 0.485533 T T T 
0.506712 0.676080 0.728814 T T T 
0.169981 0.849677 0.418108 T T T 
0.147979 0.327995 0.558666 T T T 
0.229909 0.702506 0.518011 T T T 
0.386831 0.250581 0.586484 T T T 
0.668971 0.525548 0.425715 T T T 
0.058615 0.706887 0.458564 T T T 
0.476555 0.368537 0.632577 T T T 
0.923496 0.035949 0.462081 T T T 
0.101412 0.130561 0.622425 T T T 
0.272876 0.481218 0.653013 T T T 
0.255630 0.119696 0.499184 T T T 
0.234948 0.463170 0.525649 T T T 
0.437438 0.051261 0.546479 T T T 
0.602772 0.951215 0.456859 T T T 
0.579630 0.256313 0.531162 T T T 
0.910664 0.309011 0.718670 T T T 
0.335337 0.844612 0.606238 T T T 
