6 
1.0 
9.840000 0.000000 0.000000 
0.000000 8.521700 0.000000 
0.000000 0.000000 30.766500 
H C O F Ca 
108 12 40 16 8 
Selective Dynamics
Direct 
-0.318567 0.317087 0.356689 T T T 
-0.255199 0.493144 0.363534 T T T 
0.221718 -0.019882 0.599345 T T T 
0.173813 0.143028 0.602712 T T T 
0.080072 0.281481 0.513254 T T T 
0.048598 0.219402 0.467444 T T T 
0.979114 0.172331 0.648033 T T T 
0.994630 0.310484 0.676109 T T T 
0.100746 0.532710 0.612220 T T T 
0.966495 0.587501 0.589319 T T T 
0.794856 0.335800 0.662244 T T T 
0.748131 0.472012 0.693037 T T T 
0.346447 1.166238 0.392173 T T T 
0.378355 0.975704 0.394283 T T T 
0.457397 0.800945 0.448792 T T T 
0.295298 0.812789 0.445821 T T T 
0.223577 0.307414 0.760792 T T T 
0.086421 0.218678 0.750368 T T T 
0.010074 0.077554 0.405221 T T T 
0.047851 -0.027423 0.450119 T T T 
0.533151 0.299821 0.444143 T T T 
0.660364 0.375791 0.423861 T T T 
0.052071 0.714197 0.467503 T T T 
0.144850 0.795669 0.503033 T T T 
0.270751 -0.169651 0.553326 T T T 
0.127222 0.746074 0.567159 T T T 
0.791240 0.088771 0.524554 T T T 
0.736859 0.171470 0.568913 T T T 
0.830043 -0.054454 0.587367 T T T 
0.721802 -0.095907 0.625924 T T T 
-0.041241 -0.161339 0.665458 T T T 
0.107300 -0.106474 0.687646 T T T 
-0.169367 0.028855 0.453184 T T T 
0.703463 0.130952 0.465335 T T T 
0.491274 -0.125364 0.528112 T T T 
0.443315 -0.003549 0.565196 T T T 
0.355018 0.520273 0.544445 T T T 
0.351144 0.395075 0.503331 T T T 
0.494061 0.198575 0.605187 T T T 
0.447286 0.291629 0.561256 T T T 
-0.131440 0.562624 0.471792 T T T 
0.001867 0.466700 0.464874 T T T 
0.237153 0.049951 0.723903 T T T 
0.251372 0.026761 0.674580 T T T 
0.077741 0.218104 0.343098 T T T 
0.156256 0.076122 0.356251 T T T 
0.548974 0.093794 0.657497 T T T 
0.589442 0.274392 0.669412 T T T 
0.797636 0.697867 0.600288 T T T 
0.754404 0.536642 0.621553 T T T 
0.883960 0.667489 0.719969 T T T 
0.749016 0.714375 0.744192 T T T 
-0.121958 0.715453 0.358339 T T T 
-0.084986 0.602044 0.401753 T T T 
0.368333 0.415628 0.413448 T T T 
0.248737 0.339210 0.440636 T T T 
-0.111175 -0.101541 0.307387 T T T 
-0.071660 0.984846 0.346777 T T T 
0.539560 1.099021 0.353527 T T T 
-0.300656 1.033626 0.336490 T T T 
0.625295 -0.287859 0.493818 T T T 
0.640059 -0.102846 0.475678 T T T 
0.474440 0.495304 0.363376 T T T 
0.396966 0.634365 0.396140 T T T 
0.968723 0.197242 0.567989 T T T 
0.044997 0.360277 0.574703 T T T 
0.506579 -0.260247 0.732275 T T T 
0.362174 -0.204483 0.716960 T T T 
1.201831 0.515083 0.684116 T T T 
1.092397 0.642257 0.678658 T T T 
0.581493 -0.257791 0.808754 T T T 
0.583527 -0.085154 0.791780 T T T 
0.384404 -0.669453 0.696559 T T T 
0.403592 -0.490809 0.714090 T T T 
0.729903 0.545768 0.541349 T T T 
0.657494 0.468890 0.494465 T T T 
0.175162 0.502390 0.330817 T T T 
0.021116 0.495447 0.347893 T T T 
0.509248 -0.146618 0.616738 T T T 
0.531592 -0.197905 0.664467 T T T 
0.797644 0.843028 0.207727 T T T 
0.720278 0.721686 0.249436 T T T 
0.697995 0.685864 0.193790 T T T 
0.573198 0.938807 0.186641 T T T 
0.589846 0.967126 0.244282 T T T 
0.460809 0.703361 0.253083 T T T 
0.447748 0.688246 0.194776 T T T 
0.321556 0.947008 0.194832 T T T 
0.328147 0.941375 0.253636 T T T 
0.187542 0.698822 0.254148 T T T 
0.182822 0.686023 0.195625 T T T 
-0.019868 0.800212 0.225624 T T T 
0.060482 0.940056 0.191161 T T T 
0.079018 0.964839 0.247392 T T T 
0.899270 0.252582 0.207727 T T T 
0.821904 0.131241 0.249436 T T T 
0.799621 0.095419 0.193790 T T T 
0.674824 0.348362 0.186641 T T T 
0.691472 0.376680 0.244282 T T T 
0.562435 0.112915 0.253083 T T T 
0.549374 0.097800 0.194776 T T T 
0.423182 0.356563 0.194832 T T T 
0.429773 0.350930 0.253636 T T T 
0.289168 0.108376 0.254148 T T T 
0.284448 0.095578 0.195625 T T T 
0.081758 0.209767 0.225624 T T T 
0.162108 0.349611 0.191161 T T T 
0.180644 0.374394 0.247392 T T T 
0.709484 0.775930 0.217129 T T T 
0.581157 0.875182 0.216856 T T T 
0.452651 0.771425 0.222338 T T T 
0.326092 0.871151 0.223564 T T T 
0.194359 0.769988 0.223773 T T T 
0.071880 0.875568 0.222258 T T T 
0.811110 0.185484 0.217129 T T T 
0.682784 0.284737 0.216856 T T T 
0.554277 0.180980 0.222338 T T T 
0.427718 0.280705 0.223564 T T T 
0.295985 0.179543 0.223773 T T T 
0.173506 0.285123 0.222258 T T T 
-0.335027 0.424364 0.369855 T T T 
0.221146 0.064509 0.621006 T T T 
0.092335 0.308513 0.481219 T T T 
0.934909 0.217206 0.673456 T T T 
1.061905 0.542653 0.583991 T T T 
0.722425 0.413866 0.665871 T T T 
0.352847 1.067744 0.375685 T T T 
0.380796 0.793814 0.425692 T T T 
0.176070 0.210640 0.762936 T T T 
-0.014698 0.059725 0.437090 T T T 
0.626076 0.315925 0.449649 T T T 
0.128009 -0.209199 0.470911 T T T 
0.170812 0.842921 0.556283 T T T 
0.815443 0.136137 0.551634 T T T 
0.811220 -0.117878 0.615084 T T T 
0.018274 -0.174880 0.689473 T T T 
0.751035 0.030095 0.473120 T T T 
0.440827 -0.112823 0.554853 T T T 
0.406174 0.438591 0.527224 T T T 
0.498895 0.202070 0.573284 T T T 
-0.041145 0.566535 0.456884 T T T 
0.237444 -0.034164 0.701278 T T T 
0.055631 0.110341 0.354478 T T T 
0.509887 0.192645 0.671710 T T T 
0.790794 0.582912 0.593560 T T T 
0.808878 0.618386 0.734970 T T T 
-0.108365 0.604896 0.369792 T T T 
0.345703 0.317554 0.435246 T T T 
-0.143613 -0.097127 0.337497 T T T 
0.639350 1.127075 0.343548 T T T 
0.568911 -0.198494 0.481215 T T T 
0.388304 0.527230 0.379104 T T T 
0.066944 0.242604 0.570183 T T T 
0.440180 -0.274880 0.708315 T T T 
1.109400 0.532419 0.670176 T T T 
0.595930 -0.197055 0.781853 T T T 
0.343676 -0.582007 0.712525 T T T 
0.712078 0.550237 0.509430 T T T 
0.100499 0.430846 0.336514 T T T 
0.563003 -0.120850 0.642015 T T T 
0.165564 0.117944 0.036870 T T T 
0.412389 1.136189 0.098549 T T T 
1.191603 0.412745 0.128735 T T T 
0.415079 -0.152070 0.000557 T T T 
0.677407 0.091304 0.041807 T T T 
0.937040 0.157730 0.097677 T T T 
0.672520 0.427106 0.126100 T T T 
0.922036 0.843012 0.018860 T T T 
0.170975 0.616823 0.029337 T T T 
0.425425 0.654073 0.095438 T T T 
1.158521 0.899790 0.128651 T T T 
0.433026 0.357433 0.011515 T T T 
0.674734 0.651351 0.037120 T T T 
0.920848 0.648072 0.098080 T T T 
0.666772 0.925170 0.127263 T T T 
0.896411 0.342107 0.006781 T T T 
0.170334 0.149262 0.110741 T T T 
0.395137 0.095671 0.026676 T T T 
0.652781 1.167108 0.109937 T T T 
0.895453 0.095915 0.028235 T T T 
1.163571 0.656200 0.105146 T T T 
0.412532 0.608000 0.023271 T T T 
0.670686 0.680527 0.111490 T T T 
0.896774 0.588077 0.028695 T T T 
