4                                       
   1.00000000000000     
     9.8260002136000004    0.0000000000000000    0.0000000000000000
     0.0000000000000000    7.8883681296999999    0.0000000000000000
     0.0000000000000000    0.0000000000000000   38.0998458862000007
   H    C    O    Si
   108    12    64    12
Direct
  0.5663326267044487  0.2950286625786637  0.4130638850053399
  0.6504675493259985  0.4703854471714450  0.4218628039130309
  0.0459663347347506  0.1479898108574356  0.6074597803999690
  0.1899944630634607  0.1683760981597925  0.6261189825666977
  0.0077672631787361  0.2770690582924730  0.5359325773109017
  0.9770842679047264  0.1955623204745107  0.4978355112665014
  0.7802036356410078  0.1370097347525211  0.6589058551433301
  0.8562438653906085  0.3022569111005771  0.6744661355951874
  0.9740053384800171  0.5275956023976676  0.6288220974508305
  0.8595177401174852  0.5829911946062856  0.6013978998867364
  0.6618286545708725  0.3647118925733790  0.6656114647759741
  0.5906083592365602  0.5383255978764472  0.6788107273115415
  0.2710484325007100  0.1295579899248125  0.4472288690141403
  0.2826890801613129  0.9323889623764825  0.4429364974046154
  0.3649094326861328  0.7870728168076881  0.4884880680021309
  0.2004492305339699  0.7708555019850567  0.4824895106210310
  0.2159074376692548  0.2843572600268937  0.7227733929064747
  0.1695645975880426  0.1912054282245129  0.7583092469566999
  0.9426188938785715  0.0563392896126610  0.4530607912889777
  0.9660508383562721  0.9425865571355002  0.4884967354483867
  0.4299343852046977  0.2988629921761917  0.4918855115103055
  0.5515797888316734  0.3580496986781410  0.4670141079232246
  0.9812056593435194  0.6918165929724901  0.4985920739736037
  0.0799502579434490  0.7753654578448272  0.5283019566301936
  0.2060639399939062  0.8265849932535141  0.5756481219986535
  0.0785066901963169  0.6903321086624449  0.5845159065068881
  0.6964384198908590  0.0975972899674239  0.5508301126011755
  0.6101253688157865  0.2022174737086019  0.5789674251188264
  0.7099554592660055  0.9987958486573316  0.6069642366497616
  0.6088650195217187  0.9217907124258893  0.6362303375252139
  0.8113119823937917  0.8279061555800825  0.6600537576170737
  0.9324628072057599  0.8544545539487504  0.6876954982617310
  0.7565107719990591  0.0400400221655865  0.4953747458838517
  0.6189863592962371  0.1554677448047851  0.5012098540795610
  0.4086660069223551  0.8833771185654562  0.5562265304820532
  0.3733602938946251  0.0611268387900407  0.5746865384839194
  0.2544582952956876  0.5793202178706681  0.5546758810145386
  0.2906651625265613  0.4524301342502051  0.5230985527533185
  0.4129725085911573  0.2728071619916563  0.6058412150170323
  0.3973096239493741  0.3511794377494739  0.5670157951928548
  0.7851324265064128  0.5607062072247230  0.5073956946940709
  0.9206260053471669  0.4491198510501912  0.4979782194981564
  0.1088226258967586  0.0419339516790223  0.7059594185089887
  0.0851011170621302  0.0184659073546427  0.6638781362009000
  0.0056426974357255  0.2003650623341160  0.4063054312652338
  0.1078615454883559  0.0484882563867906  0.4172975772851987
  0.4036740754279344  0.1387192695292308  0.6510036489659293
  0.4614711372556659  0.3365689385797765  0.6543804641333455
  0.6921618241318479  0.7264115179623127  0.6079565592342049
  0.6513425664987222  0.5416158909149118  0.6211575969062029
  0.7157272108623443  0.7211736495786235  0.7055225874131058
  0.5708577009596902  0.7474975127834843  0.7236194343953146
  0.8029207468927633  0.6865728700350880  0.4139773654884918
  0.8256824360632281  0.5661955053007510  0.4483659368262504
  0.2663763598512117  0.3768588916262740  0.4594890661501342
  0.1746261387291881  0.2878393989023199  0.4912916384321436
  0.7988889437330541  0.8598542386474408  0.3703605619564912
  0.8829923728615062  0.9519427414169150  0.4005075151325361
  0.4562379563218034  0.0652640454789275  0.4046997996885370
  0.6151704764804509  0.0235479774321891  0.3994693742625102
  0.5328893961478559  0.7156294352311042  0.5243852381625548
  0.5517842111461542  0.9079802169264455  0.5130843616356873
  0.3924165195264177  0.4791868463099778  0.4224348484262551
  0.2977469858998363  0.6114445411551793  0.4426601428037791
  0.8586025592035863  0.2207581508656819  0.5776081374433872
  0.9624534204079904  0.3733068852181023  0.5865809089806365
  0.3526558197577955  0.8229525437383999  0.7064315858638689
  0.2101337713400938  0.8233495986788436  0.6871215167889103
  0.0586770496746102  0.4594556941077733  0.6800615773804107
  0.9236225891512795  0.5824658901516433  0.6774114515841366
  0.3574836936949139  0.0547701728405462  0.7344913611608707
  0.4985918325573023  0.0437169054655491  0.7150496077641214
  0.2741730409489206  0.3696772512647016  0.6753961193477229
  0.2587369425000350  0.5531729716140787  0.6946958472453456
  0.6518748937882504  0.5568768350799450  0.5572917230911388
  0.5922656690720122  0.4644473850666667  0.5209148457748854
  0.1034040562163035  0.4436754177198765  0.4025074425463617
  0.9406868349429605  0.4655642152577604  0.4046328245462381
  0.4106863754259285  0.9219672043470650  0.6168519698111138
  0.3907742306424363  0.8542122034526703  0.6571773130408959
  0.6726657727723934  0.6687339616575945  0.2663101270297906
  0.8494666997860438  0.6767341923238905  0.2761929776844637
  0.7567734034835378  0.4850564772998417  0.2827459101822922
  0.7053893168637060  0.8171710092196645  0.3235518409505439
  0.8042613198430397  0.6429974819128039  0.3398146182211776
  0.5706259938837175  0.6378018972473417  0.3649681382338900
  0.6020795548895085  0.4557107666416850  0.3391704614916596
  0.4656215846368446  0.5788406703249189  0.2895337555731213
  0.4471835307638536  0.7722521130512088  0.3128454801610089
  0.2359879342836698  0.6052530249724405  0.3176073380606484
  0.3117716758769816  0.6224010330466571  0.3596321766078321
  0.3361988310519929  0.3071272613331773  0.3113730162018559
  0.2247168254121573  0.3250645994552495  0.3480560849800697
  0.4039329429611168  0.3227281114646818  0.3544956304104749
  0.9642328256676093  0.3809038649657312  0.2645137252862718
  0.0500595376936498  0.3889484203333312  0.3056209265938662
  0.1451606232796899  0.3686693399381866  0.2660600096412328
  0.1425139271635045  0.0837720108996912  0.2906906408636953
  0.0217471277182017  0.0785296547875909  0.2562995251326138
  0.9666378517971416  0.1147991359313465  0.3357527209408335
  0.9337802462825623  0.9328928097444984  0.3095969779466908
  0.7853259801496093  0.2778455622076057  0.3044253220770631
  0.7207044462397247  0.0939229812534891  0.3241900268527703
  0.7404017251883235  0.9440265208316393  0.2638750336480614
  0.7800146898206740  0.1430939389932084  0.2452404936439986
  0.5150647899903986  0.0627891358007612  0.2863498647631514
  0.5270711865632992  0.0796130966053127  0.2397913743328505
  0.5538737749904034  0.2614548200767281  0.2666563142198334
  0.7509565528441150  0.6244089878815358  0.2848704281621700
  0.7170992431851082  0.6774891374076889  0.3228505513076669
  0.5863023452503909  0.5941421377399385  0.3376963172638281
  0.4562152973970936  0.6334041073124409  0.3161998801783628
  0.3243268992064662  0.5641729854783109  0.3334411647213067
  0.3223537582453672  0.3688650065476493  0.3371345984350843
  0.0509551030505887  0.3293343261373958  0.2794442215764251
  0.0426256372759113  0.1339876415671492  0.2824143390023929
  0.9342245585984054  0.0731903443357855  0.3093378706694991
  0.7874894156920828  0.1378122382987647  0.3026435356854156
  0.7252537371894987  0.0819758305253459  0.2671995052378487
  0.5716697126750930  0.1236495646073717  0.2647360332083656
  0.2141352678425468  0.7873593313651991  0.0430357609545177
  0.1977652936791665  0.4448374328842884  0.0650365528452936
  0.3139678550469127  0.5381374196453036  0.1241347979021302
  0.4321208235004358  0.1532370470337588  0.1670815594496326
  0.1170089207165738  0.3668149117365050  0.1938750730041220
  0.3676238465072400  0.8740948265477894  0.1266369141053968
  0.1838740541194019  0.0647087791057199  0.1592704493454723
  0.5221774373242485  0.6542603418722817  0.1614958008092806
  0.0950387546586760  0.3377639504679417  0.1253613469081404
  0.5277640457847393  0.6727729008536265  0.0905912495908673
  0.0862601936803101  0.6910526038849101  0.0198737583616459
  0.3211835293190606  0.1961198358472187  0.1039963527847739
  0.7261158565116297  0.7860975840211718  0.0433131558869403
  0.7052688754933373  0.4450959584125814  0.0651630389462104
  0.8118366957222700  0.5345666526534711  0.1258470428493036
  0.9333555886735042  0.1505133857218789  0.1677370049148795
  0.6180547659391099  0.3733642205033649  0.1925804928604550
  0.8644945557510693  0.8704703302525606  0.1284768322011733
  0.6832773553272098  0.0672337923022150  0.1601033633313235
  0.0190960452916682  0.6498741252973432  0.1636165984574746
  0.5941576018073654  0.3348432598269848  0.1243002653692204
  0.0256474252282432  0.6718992099680896  0.0925290111962785
  0.6006195613606388  0.6916873163753028  0.0189703990273197
  0.8227568186357930  0.1932410751170822  0.1047109883355508
  0.5606552497244869  0.4079953991935909  0.4264208200440591
  0.1102004628919468  0.0905645878656598  0.6252287575634299
  0.0232744560877170  0.2992558777367044  0.5097340810553390
  0.7721641370596668  0.2270854378355307  0.6772507070650684
  0.9627105980518912  0.5609980132001693  0.6029523539777735
  0.5902943639812316  0.4544744289131882  0.6581471197420604
  0.2710985599098212  0.0397989790373596  0.4280203148802919
  0.2918387777159183  0.7714175090330513  0.4694777389657268
  0.2088731337093065  0.1669134845087285  0.7348198136226237
  0.9089606489327702  0.0413509588885537  0.4786545464770189
  0.5321839313833070  0.3211583859327401  0.4927344676007815
  0.0533218043076620  0.7853748716963209  0.5023696853539258
  0.1473577194208371  0.7301010635417134  0.5663105049243869
  0.7017704481306597  0.1413235184695954  0.5765138466431597
  0.7084523075005015  0.9156614184043003  0.6280171571614426
  0.8535334154151096  0.7748721955176703  0.6817681429219820
  0.6703730506752714  0.0503188327358049  0.5105048459919689
  0.3563839889965644  0.9338534585620798  0.5773839675025735
  0.3284564663501034  0.4997422458147349  0.5453875975973402
  0.4431790676723270  0.2530046627102885  0.5806547962249126
  0.8661856380213101  0.5548258966121328  0.4904434352351213
  0.0808368414388096  0.9553853912466388  0.6877289841732575
  0.0055289213467389  0.0751802362480804  0.4145862538733932
  0.3753659185106160  0.2640473219101658  0.6490367784371752
  0.6946001080849675  0.6023822931086823  0.6001803484429187
  0.6295092411920047  0.6587613717158987  0.7128685692559875
  0.8038077507482699  0.5629209230189687  0.4220920239198536
  0.2674530855549579  0.2842543282861825  0.4789938247308229
  0.7967415230983966  0.8808200314486487  0.3961441677280418
  0.5432637501578451  0.1100499050495388  0.3940705497613103
  0.4767461324242299  0.8228653623076566  0.5195538446016352
  0.2929482801491254  0.5034704518241850  0.4277406937057242
  0.9601715344134576  0.2499158356011915  0.5775227077982068
  0.2993064313579881  0.7546842640461214  0.6882904305824726
  0.9625215553313695  0.4677260510218145  0.6698704260929520
  0.4359099981943782  0.9735600616191082  0.7295343143773455
  0.2175091938386712  0.4335509656990512  0.6937336351152322
  0.6454453604988906  0.5655972845389495  0.5307454304820480
  0.0160740853523576  0.3939629556328563  0.3935879910762475
  0.4446887421075752  0.9393511859589284  0.6424710356305927
  0.3294502498068796  0.0660776596320760  0.1383662817250559
  0.8290734420595873  0.0643672521812672  0.1393904220969767
  0.1129099031000272  0.5804650820108614  0.1975895014792160
  0.1250872910372762  0.6306229339085565  0.0598412162133248
  0.2377551429508628  0.3770758598625479  0.1045089140016560
  0.0836754924811684  0.2310252182401398  0.1624775883903651
  0.4340780487705523  0.6831474262496975  0.1259250111348785
  0.6320599931661660  0.5874970807568909  0.1921907509108999
  0.6331963056284086  0.6308280440930022  0.0592668373008675
  0.7394134543010085  0.3743372315471340  0.1047236887286244
  0.5826146778078972  0.2334446477773642  0.1621118205640683
  0.9321968189104027  0.6802439126835091  0.1278710691719353
 
