(written by ASE)

410 atoms
4 atom types

0.0      9.9130000000000003  xlo xhi
0.0       8.504800000000003  ylo yhi
0.0      73.728899999999996  zlo zhi

Masses

1      15.998999995884349 # O
2      28.084999992775295 # Si
3      1.0079999997406976 # H
4      12.010999996910238 # C

Atoms # atomic

     1   1      6.6832307068047934      2.3171909723227655      7.1822966540295434
     2   1      6.7753721100381012      2.0097208034066862      12.165220429971175
     3   1      9.8111238206389899      6.5373832597823531      7.1073942035769511
     4   1      9.2334242049652513      6.2674211410748972      12.232655079327156
     5   1      7.2195405537283408      8.4238537381817213       8.554126777117574
     6   1      7.4920188072642331       8.262875117070827      13.592483108127389
     7   1     0.21450602645536188      4.0868334429829627       8.479201482526797
     8   1     0.10975347844800935      4.3638004976097724      13.910420109485496
     9   1      6.5103761391603836      5.8041857562343191      10.252054805666974
    10   1      6.4832401433337266       5.889329241333991       15.71097600082879
    11   1      8.7012290411296416      1.2447852028374766       10.44035213505839
    12   1      8.5298691646572031      1.2394178556904465      15.499645465585607
    13   1      6.8840593220452346      3.1933420773627956      9.8570840000271254
    14   1      6.4872460689358995      3.0392009970379692      15.492954098053882
    15   1      9.2792729377536389      7.2810895277350918      9.8075797530635302
    16   1      9.5388736815856561       7.272001679557528      15.053438477296282
    17   1      7.6805095694526262      4.7919409569769638      8.0527966061878615
    18   1      7.3463332912084836      4.6770154911915007       13.48093530076105
    19   1      9.8251218902784512     0.80880907614769537      8.1437725011243352
    20   1    0.044228708462710653     0.86914821259838004      13.320147415592674
    21   1      6.6602102091686195      1.1131128438230569      6.0282886278055408
    22   1      6.1481730229893863      8.2140842451908327      11.263781713856973
    23   1      9.7642058503382909      5.2926998622807568       5.989195526728655
    24   1      8.9653204237056094      3.6354606298595993      11.535869112309021
    25   1      2.0759223677032721      1.4654029103501465      6.5042350570825507
    26   1      2.2630433666989673      1.7796622384239222      12.206556453826845
    27   1      4.6763689054228292      6.7013342437638856        6.78965984502178
    28   1      4.8221078234267578      6.1154699847848137      12.316627310702364
    29   1      2.2340277751505426      8.2517192825850252      8.7591644566608853
    30   1      2.4459804409592993       8.403730121471801      14.038632038600902
    31   1      5.0135263867805113      4.4406051458412348      8.5658589246624377
    32   1      4.8909812290492214      4.3495283001774059      14.183487312808213
    33   1      1.3944575563460644      5.5525004145161692      10.415405170555275
    34   1      1.5473037022014524      5.6446477513267492      15.664764479086266
    35   1      4.0328801436870707      1.2369035137421553      10.206685090264976
    36   1      3.8476166302051364      1.4854114155537894      15.806870390752522
    37   1      2.1930297607331188      3.0907330533765465      9.8600209950844615
    38   1      2.1929357763882238      3.2329813392589863      15.036086296749623
    39   1      4.2208138525229879      7.0967960100877905       9.902151548229579
    40   1      4.2413490406397258      7.5182237951152144      15.584888306891953
    41   1      2.5574396191161219      5.2438163128332187      8.0515491670447474
    42   1      2.5766275818465911      5.1321317487926077      13.190837884968129
    43   1      4.7170187915484378     0.35828417048786537      7.8281841282987612
    44   1      4.9842581144130662     0.74850185591416707      13.548941151456818
    45   1      1.5614572542398688    0.018320268544798637      5.9158038992488704
    46   1      1.3468464932701762       7.707613396062837      11.655485075301026
    47   1      4.4887277472489515      5.2817894370749023       5.911124499590839
    48   1      4.1461248379910813      3.5499961032958374      11.690999488787851
    49   1      4.5009159814071369       2.441162301957009      30.608490739175966
    50   1       5.853243462690652      4.6438576494255255      39.613319682410875
    51   1      7.2969089701319358      6.8936015111476667      38.753417529800018
    52   1      6.8922566091671493      8.0635103128102994       49.22342131590748
    53   1       7.037219597254575      4.0483594020639933      44.160041752428192
    54   1      9.6019073981774614      1.3795941824770797      46.522147467424908
    55   1      3.3993064202349372      7.2295812927825756      26.075161415357936
    56   1     0.19069629867220192      8.0460395322957901      27.841396168109185
    57   1       1.506494214112766      2.5231350862268496      57.611187756016065
    58   1      2.1135302727787404      1.1009072992718474      25.851582455902829
    59   1      5.8508824022853343      8.4441473274573688      27.264620491628527
    60   1      5.1773437616410183       8.018582709663832      37.406133149046497
    61   1      3.2861317438551905      7.4120292460585793      51.771843332306155
    62   1      8.8885086283136499      3.8136726056922186      36.654791728730515
    63   1       1.327202067130576      3.7503163099140608      54.010869076806387
    64   1      4.6697182702927549      6.6796765376742515      49.622824581824673
    65   1      9.1547607361545644      6.0095374605516847       29.05358067893323
    66   1      7.2754491180265788      1.4131785123556067      30.695956664233975
    67   1      8.0942130397030709       3.116491734304244      40.504641202936455
    68   1       7.169865524961331       1.004702493385746      36.822956068380748
    69   1      4.0299391238318272      2.1268977128623572      33.787606651265286
    70   1      3.3262345155681787      3.2253764701648411      46.902437795826032
    71   1      8.3151660352096251       1.108177642589522      53.991297796832015
    72   1      3.8247793413730351      6.3149218582985354      40.445303078619538
    73   1       8.877803210863437      3.7337908083934237      50.224733141624355
    74   1      3.5495719204795257       1.972637790729747      55.041533893851891
    75   1      8.3140082414753902      3.6868422392054785      31.850452790815869
    76   1      8.7836412279331402      3.0053275702864304      26.163242106096963
    77   1     0.22503892844251039      6.6826673591241841      25.176070045581881
    78   1      6.7287424732827716      5.9213858665188788      28.091629773433766
    79   1      4.3247197458779176      8.1257341895665878      33.286580808840903
    80   1       8.400492504346504      1.5155995673177973      23.885091365725835
    81   1      6.1616456745882768       3.384783327297789      37.267967289371896
    82   1      7.2006933557899249      5.4285898770689718      46.636423075757122
    83   1    0.077416796512627895      2.2685082888377113      52.071859326373072
    84   1       6.049462804250699      2.9699872860094896      52.185572789903183
    85   1      3.0838593985267444      5.8141829262612186      54.004267648541365
    86   1      3.2438092781126002      7.4671002632215941      47.633439003046647
    87   1      2.7455376573631947     0.52233271008315463      21.620703281490258
    88   1      9.6138448312109333      6.2662295417878306      37.530199548395714
    89   1      3.6467799037815425      3.8476170401639651      24.255596248060233
    90   1      4.7997074905406869     0.23119580902525874      45.881467933371454
    91   1       1.715048779468763      5.0373853592747047      39.215702634705103
    92   1      7.0823742315021727      4.7699093583672889      54.288790568351828
    93   1      2.2380020047203768      2.5669427978794443      42.752330710701351
    94   1     0.26890090907977032     0.61241268793740045      56.200705794115201
    95   1     0.69878172464720256      2.5500261270255278       30.87660557647035
    96   1      1.9994053661215541      1.2166887439558749       48.24433234458688
    97   1      5.9843759359706272      5.4647226937720594      23.541120031423205
    98   1      7.2445863641621706      3.1539857993196807      22.146141075296331
    99   1      9.4903795640365605      4.8866592439009899      55.633551580310865
   100   1      3.2917447227489052     0.36888323829149505      39.313506487439589
   101   1     0.89661449324966092      6.6796827586833283      44.596059730729365
   102   1      4.8840544506111154     0.17801765024135169      43.113636184642388
   103   1      8.3328134048594329     0.66975998767985145      34.333331598216432
   104   1      6.9634715811402064      8.0940201480919196      32.489344013670795
   105   1      0.8745581321665129     0.27965486960051061      23.680887591283255
   106   1      1.3448338784744454      6.7669377025569597      56.037153249714734
   107   1      6.7656921691209018      2.3883074014480714      49.540265096016803
   108   1      7.2223263721432671      7.6606654900928781      41.758326771166224
   109   1      1.4381468261581845       5.981721404481652      33.111857667631575
   110   1      3.1244732855875506      6.7762439410176736        31.0430039396932
   111   1     0.34533807453882032      7.4035825411652159      35.232567906978709
   112   1      3.2545412963934695      6.2982486900007686      43.351570559656011
   113   1      8.1206863304228616      1.7849578402261448      42.956103948607485
   114   1      9.5125792217280694      3.0188855664608525      34.114752996579398
   115   1      4.7041438689738566     0.79894089655794887      53.096185253773854
   116   1      2.7151957672955405      2.8395641131692568       38.06707151541552
   117   1     0.58757558299013968     0.10680727242745719       39.70895765428989
   118   1      3.9791262290693101      3.8546665807858922      35.982029131944927
   119   1      8.6511492347885408      5.7356861768685494      43.060605329238456
   120   1      3.1913195152816267      5.0218456277879557      27.696480917927687
   121   1      2.3373261873669273     0.58029233039376626      29.559254805788235
   122   1      5.9567771399102538      8.3515969326224528      24.274343727902192
   123   1      5.0394308647820498      5.1582125074037286      29.830871441391519
   124   1      1.5196225439935462      5.1258700942939122      46.774966916061523
   125   1      9.3207917320398419      4.0382288197520042      58.207362323757991
   126   1      1.0977787547001987    0.075159257214805916      50.796141880459636
   127   1       4.381226620825899      2.7820816835588609       26.54145964474306
   128   1      4.8154073674811553      2.1339932840631666      40.720305007833062
   129   1      8.0962307770100406      1.3541598535145354      27.994568002555592
   130   1      5.4072564862586558      4.4459653128642636      48.459437469727561
   131   1      7.4552865956153003      8.1012467314311802      46.506864101435255
   132   1      1.1109487417981514      3.9554616506254199       24.38087924811682
   133   1      5.0377381963055967      4.2740193331442446      55.642014222958331
   134   1      3.1257043263910136      5.4482613766490218      57.773128413343571
   135   1      8.7675093835447075      6.8492798120837586      50.941134730565601
   136   1     0.27192080757527332      4.3818894527961207      41.461277245180717
   137   1        9.16847661721485      3.7558982420886911      47.529680871718917
   138   1       1.736325770321312      0.9776171393483396      35.759795295149225
   139   1      1.9139168524401835      3.4254767663707613         32.920227538149
   140   1     0.43641962501726339      1.0813869441037165      44.108683777114003
   141   1       9.095413880948362      1.8384757083455505      38.495669557730714
   142   1      3.9322301805118629      6.6379224465733309      35.728347682856985
   143   1      7.3269264021494749      7.0858832317598237      53.204514676046706
   144   1       7.636223888714607      5.2133618794575227      25.667633707539228
   145   1      8.7868680372284391      6.3005091863961571      31.738399421193463
   146   1     0.73030281267006181      4.0725147857848603      28.391487065447972
   147   1      4.6296338587297203       1.991172712118334      22.794401559669133
   148   1      4.2115193742092716      3.7951592521333568       43.98269407568953
   149   2      6.2442942287997241       0.802463438509191      7.5249804934476865
   150   2      6.3439495013007132     0.53489620331873866        12.7152626709053
   151   2      9.2082345610642964      5.0138901031864629      7.4861966053949205
   152   2      8.8223289651165153      4.7381779962170594      12.803890272929719
   153   2      6.4949595239759876      4.6239954325678712      9.1948148973808284
   154   2      6.3712874160831907      4.5053801172223471       14.81633763931919
   155   2      8.7118364032397793     0.21118400592510775      9.2243563688064647
   156   2      8.9252904344043493      0.1062252736751275      14.306576996194362
   157   2      5.4286142083864481      6.7759562086444021      10.995103041667532
   158   2      5.7881386854248262      7.3445476855499505      16.264984674580909
   159   2      7.8030223878870757      2.5583800970516402      11.008905213699549
   160   2      7.0116807519704922      1.5698207021875157      16.130563120062472
   161   2      1.3458493123491291     0.36465240812208383       7.459865842541662
   162   2      1.5203310740152638     0.42117590179439723      12.751253645071088
   163   2      4.0865277552501436      5.3260398716648689      7.5017307575977741
   164   2      4.0507588384395428      4.7153740194156493      12.781530328237128
   165   2      1.6401423964416693      4.4877724582222491      9.1737041976409177
   166   2      1.5758646775075613      4.5820420793103009      14.426534328748136
   167   2      3.8483535922739676      8.4850119030057698      9.1455226783872643
   168   2      3.8541653522611208     0.32150482453504026      14.688995451309609
   169   2     0.31920645789846519      6.5839755549017083      10.951921042344638
   170   2     0.89563993957581178       7.076334694176766         16.168867008267
   171   2       3.175462484538631      2.4079502521027649      10.995351899757193
   172   2      3.4834189875134869      3.0741236347805798      16.127647811564653
   173   3      3.8212592562631311      1.9070554628303651       30.17415641520908
   174   3       5.396139975527336       1.989638443412006      30.513264556634766
   175   3      5.8669324810450361       4.126262574339342      38.733151404139775
   176   3      5.0022726755077143      5.1525357647349104      39.706568336897227
   177   3      6.9137320942360025      6.0347762807536967      39.002101256518984
   178   3      6.5219783902107569       7.433256883920496      38.324353765874662
   179   3      7.5551962534305623      7.5083790059263791      49.652541432473761
   180   3      7.2099540511492028      8.1606775820275619      48.188588256266172
   181   3      7.5842482218931204      3.1682035722838346      43.863395942235812
   182   3      6.1561753733667839       3.704047439718932      43.986632471754753
   183   3       9.283454300709451       2.233705979536766      46.872628073908075
   184   3     0.50869208990870518       1.180573410245888      46.997687892612888
   185   3      3.2515133509318095      6.5756819078219957      26.879865023684207
   186   3       3.173349799049721      6.6407896787772378      25.351022046893913
   187   3      9.3320551719462106     0.19362971552103936      27.896180282933358
   188   3     0.30605837259512064      7.7727353871076623       26.88974851841288
   189   3     0.76674705788601927      3.0540030392413331      57.958613398839212
   190   3      2.0526245999134911      3.2180219211208723      57.119925097803559
   191   3      2.7516209164013374     0.34914471437015038      26.090687794450648
   192   3      2.7313117841291947      1.8389993063691927      25.583612867347561
   193   3      6.0562987894445444      7.5827774723197825      27.672336629453213
   194   3      5.3969518799311844      8.3191139827812393        26.4006794740842
   195   3      4.7423637194224648      7.3797221504033095      36.769753913105603
   196   3      4.5663591440660207      8.4269866269232594      38.015380520372481
   197   3       3.713699155341009      6.9448083600213648      50.966154873651398
   198   3      2.4630023198163622      7.9381368882359551      51.513107238314184
   199   3      7.8990219422755086      3.9216186351404767      36.791884101122619
   200   3      9.0410327439093248      3.1758875643682001      37.454121093354416
   201   3      2.0559046043049793      3.2150463361577719      54.399282175326867
   202   3      1.8147707061980327      4.5927495638706803       53.82806792238118
   203   3      5.5444724777269805      7.2702270013225121      49.541686983854795
   204   3      4.8888684105139371      5.7387160254391567      49.311583327304099
   205   3      9.3057545582475658      6.1448152934879019      30.053351890612124
   206   3      9.6547159264648599      6.8225543431935352      28.587246523430153
   207   3      7.6838950055434596      1.3815199802992686      29.772248554423978
   208   3      7.7708086896694057      2.2331490913179555      31.114842714050905
   209   3      7.4397537025456355      3.9235255539328047      40.495345163597207
   210   3      8.9304614118418613      3.4982843126202576      40.826367158868642
   211   3      6.3486752816483927      0.4829773806380917      37.070179995020389
   212   3      7.3935960649540524     0.93775981043228085      35.868188836913006
   213   3       4.701288411729446      2.5303978042442927      33.162910274947087
   214   3      3.1770821929129274      2.4568667279768972      33.384909628236159
   215   3      2.8575850383785677      2.5698142075550199      47.463368433900442
   216   3      3.9999515677263728      3.6551863812664895      47.531664689287844
   217   3      7.5053317608171701      1.6506467843475321      54.318729225709312
   218   3      7.9449795629361288     0.28476683219828375      53.651993259177921
   219   3      3.9999219447614753      7.1553993723104874      39.928058931299127
   220   3      3.5071920160864738      6.6605912037522712      41.341121984176958
   221   3       9.159614194721005      3.5791139851873606      49.273678923719686
   222   3      9.4572130747699283      3.1876964402463712      50.863728353456658
   223   3      3.9851319230169726       1.412854288584571      54.260308207966467
   224   3      3.3651374858884582      1.3942881034680112      55.802159729899024
   225   3      8.3026785358849633      4.6833023313231301      31.719418890302094
   226   3      8.3589369280468269      3.5636636675229512       32.85114871814767
   227   3      8.3821429339947802      3.9763564288941335      25.930677751840786
   228   3      8.5202842176458571      2.4991976771189086      25.348029857459753
   229   3      9.1649072493330479       6.524890240285977      25.199344135310614
   230   3     0.42594363070486291      7.3788810796691617      24.471350833572572
   231   3        6.13835552557331      5.4794010882602429      28.727815411781918
   232   3      7.5786116218213859      5.9857913354654446      28.583370980231454
   233   3      3.8500726254805748      7.6831819711550917      32.494254727989272
   234   3      4.1211169787525153     0.62695194986061553      33.345228751509538
   235   3      9.2766522978322374      1.0446944915024066      23.849697132465149
   236   3      7.7920786191227647     0.74704958862153992      23.968618692639222
   237   3      5.3535557339867061      3.6666423428558645      36.787444591011052
   238   3      6.3830852919091745       2.459729001907113       36.96684040321464
   239   3      7.0790993007257663      5.0542273756988241      45.706919979184143
   240   3      7.4673207632525829      6.3744549492841385      46.483597684913526
   241   3      9.2933071638578628      1.9331514552248183      52.745482215339919
   242   3      0.7424083181456631      2.7636733125309685      52.642163381511999
   243   3      6.4540971059198053      3.0274462727015408      51.288016477630549
   244   3      6.5922189174701611      3.5953917530342538      52.702221262863247
   245   3      3.9250762337833303       5.594288834035388      54.504485946766074
   246   3      3.3367760743380779      6.1878626765084528      53.075059089969109
   247   3      3.8476751901898401      7.2021420979925264      48.465849084939897
   248   3      2.6738783092162159      6.7110031459141881      47.471831089896035
   249   3      3.5400737856939579      1.0066417163328127      21.982127793185903
   250   3      2.9952258213918359      8.1269341441139957      21.405953558199155
   251   3       8.892091216819253       6.498743058969696      38.164394976157837
   252   3      9.3572707454893997       5.333155281082484      37.284102666723783
   253   3      3.8899576949347243      3.5788274387809276      25.155701698497715
   254   3      2.7015073160412824      4.0168880356622969      24.154271762171895
   255   3      4.5256118609907281      1.1523921569296847       46.01738875106328
   256   3      4.2712940274648785      8.0979421931550579      46.375336298082253
   257   3      1.2028564851027654      5.5460762131177193      38.530102406253455
   258   3      2.4007102241730975      5.6016850021700559      39.641758630861652
   259   3      6.3528066175287137      4.5163997114223582      54.960779927208549
   260   3      7.9542881892267818      4.8358638190719709      54.753712597643755
   261   3      1.8219493749187023      2.0001923692931642       43.39652243987581
   262   3      1.4686704383345899      2.8363293018472624      42.064736078998457
   263   3     0.71973391061416581      1.3742801658276078      56.609991636600341
   264   3        9.44486582069562     0.92612897750269985      55.617694550121776
   265   3     0.60253948080457864       3.017912609264036      29.981689110743766
   266   3      9.7675815194394371      2.9320782836831167      31.239386395897341
   267   3       1.703073205486481      1.1546957651961258      49.128239404442468
   268   3      2.6199299041893185     0.36544919852744201      48.036671545757919
   269   3      5.1241820488401855      5.1261008021100141      23.820556541156236
   270   3      6.2630858178084754      4.9683418493978122      22.817736604017341
   271   3      7.7090425398617697      2.7273920977715314      22.899506578359819
   272   3      7.7117366642177219      2.9143316762211193      21.304144369008053
   273   3     0.13189986007680204      5.6612239256433927      55.878434794943786
   274   3     0.10747287107412629      4.2298821257620594      55.069351694804077
   275   3      2.3525063664885457     0.27838925599988817      39.597905342022266
   276   3      3.7258538134908443       1.045489368067535       39.94480317665073
   277   3      1.7926077673446332      6.5465304380577631      44.254582242504846
   278   3     0.17101277098832027      6.2698944253255968      44.107377490888666
   279   3      5.6977413252185709      8.4763650485178825      42.611454647837768
   280   3      5.1411315319422553     0.27547614934192699      44.047729795765107
   281   3      7.7310347384746114     0.21318755836706069      33.727546918361675
   282   3      9.0428653788394087      8.4878697417970574      34.552148620190621
   283   3      7.1548115338796547     0.29414053153832626      31.713897701410712
   284   3      5.9686676845859408      8.0422638097968981      32.654496646953518
   285   3      1.4563751625147736     0.39083872734939779      22.923562792679959
   286   3      1.4264521883614589     0.66542213892549562      24.501113878239469
   287   3      1.8949076190577825      6.6032421609887066       55.23948114314846
   288   3     0.96336945904193017      7.7188277555546474      56.087282345777147
   289   3      7.7283556954502801      2.5681017094440364      49.892056926930692
   290   3      6.7188937331927159      1.3961026878170519       49.40604901058348
   291   3      7.2914707735826694      7.1522116913688558      40.932447436461608
   292   3      7.8807824435587364      8.4305445731126127      41.816097390464812
   293   3      1.8670306546093605      5.1122957986885345      33.228367564370778
   294   3      1.1508227759054261      6.3934664952946445      33.954745729718901
   295   3      2.7551925622201723        7.40897635029072      30.413749766196169
   296   3      2.3804976561927731      6.5796495251292635      31.689600266951249
   297   3      9.8760140100686709      7.0014436131739881      36.060587598051548
   298   3      1.0277957852490036      8.0017488589730945      35.583379830772266
   299   3      3.7207892977988744      5.4631611478284023      43.620889655111462
   300   3      3.8803935400289005      7.0372434645879096      43.383112326461152
   301   3      8.2802796166596551      2.0262783648012754      42.013852372383781
   302   3      9.0363902162564216      1.5970639056333997      43.218168681086233
   303   3      9.1761184227367831      2.0496261633730537      34.053067643142477
   304   3      9.5430481049730194      3.2354399063131889      35.037849395393202
   305   3      4.0342019912060429     0.32748043229755741      52.517801311013208
   306   3      5.1298059858926361       1.599898505501999      52.662500397244365
   307   3      3.1577612625235982      2.0602160548419688      38.451661595069659
   308   3        2.17010823401744      3.4625912508454562      38.663099433246245
   309   3     0.19164907394237155     0.79078235294821575      39.088934714770005
   310   3     0.43531309292096715      7.7705154782244499      39.227186182691199
   311   3      3.9330473443195175      3.1189435797506451      35.305183022698564
   312   3      3.3381641795843091      3.6665052915575611      36.713495544104632
   313   3      7.9548016743081096       5.150855715779592      43.398728513097623
   314   3      8.2498359136727935      6.4610095695259675      42.561661781532564
   315   3      2.3157527963750497      4.6527717682256258      28.080673482630971
   316   3      3.6972899630052831      5.2670386128442477      28.488491258942947
   317   3      1.8142925311706926     0.30565267304723931      28.762927664109643
   318   3      1.7203642466763041      1.1353731382744103      30.102241628618799
   319   3      5.3379963363323686     0.42313460622168209      23.762886620727297
   320   3      5.8593748921412754      7.4512212129608475      23.937623997704108
   321   3      4.9233486403912856      4.2108240797924914      30.167147011861282
   322   3      4.6020606025573327      5.6637420271450356      30.519655247552226
   323   3      1.3958626180068998      5.4854571837879416      45.852460738765906
   324   3      2.1841374096347952      4.4015759433770194      46.836097742467949
   325   3      9.1370401922493105      4.4940946978301239      57.328193988180963
   326   3       8.516662998512107      4.1156867506386474       58.73457329600437
   327   3     0.82940831933870041     0.89246653702973011      51.392516515251593
   328   3      0.2669178262822603      8.0674473598277601       50.88362824477727
   329   3      5.0840585261946689      2.3062154738799761       27.01288392816695
   330   3      3.9158779784693887       3.367114906306798      27.188867894272015
   331   3       5.170082406752571      3.0145376341990153      40.465727900017498
   332   3      4.9431389689528551      1.9707811357997802      41.668892741680928
   333   3       7.289162010755672     0.86208726101437738      27.616148011860744
   334   3      8.1783772590992161       2.191091680614722      27.416133951840564
   335   3       6.079787084563673      4.8468938403228199      47.790446439932694
   336   3      5.9111890790823338      3.5993122240620572      48.760634144824401
   337   3       6.533308012175751   0.0040240089912852309      46.251533962604427
   338   3      8.2491860572041134     0.19735804074671434      46.412739324520771
   339   3     0.58177690588504039      3.4706416893965475      25.026684861601428
   340   3     0.97923285623902034      4.9134274501887152      24.667282048015167
   341   3      4.4385301154827301      3.4369728557980848       55.56437886372138
   342   3      4.8030671921959653      4.7699649097470065      56.478726708803087
   343   3      2.6437125309467246      6.0764738600981074      57.234235620501146
   344   3      2.5850958064824305      5.0512683386074038      58.456669151689226
   345   3      8.3425259681425157      6.8256770221185237      51.838522395177343
   346   3      8.7276621900115927      5.8626718145826873      50.781385029173535
   347   3      9.5761950736636514      4.9709138334381002      42.025216044162377
   348   3     0.72592191895797797      4.8587507351786714      40.764734019867348
   349   3      8.4192088571159118      4.4382431409189529      47.259358563249037
   350   3    0.071265873244696229      4.2702677913653355       47.39107448476576
   351   3      1.6223569897860111      1.5818996492563275      36.549373406104166
   352   3      2.6488281050958342      1.1627357865168242      35.575172786151157
   353   3      1.1564719015010976      3.1542947253661797      33.478316725089634
   354   3      1.5531841321984288      3.1527917568417796      32.032167072007816
   355   3     0.11419069494241142      1.2772094835808565      44.994801726404766
   356   3     0.56831919812603748    0.062408915250994131      44.099108187542924
   357   3      8.6547316183881229      2.3390555748998274      39.214088585965783
   358   3      8.3799294061370215      1.4110597779826044      37.872554457265181
   359   3      3.9645547493932942      7.0994289996569329       34.84924416483161
   360   3      3.9175565000701398      5.6393159527019234      35.632139732203086
   361   3      6.4340903672344227      7.2476706750691315      52.954737140759015
   362   3      7.2473603716934836      6.1943481637617595      53.719873439000374
   363   3      7.0625195990999243      5.2921125876833726      24.823559019111666
   364   3      7.0355991912965283      5.5375035406485775      26.467147049194594
   365   3      8.2174797513459499      7.0337530085316455       32.06931200765527
   366   3      9.4669377085667712      6.1814237492642023      32.447534365005154
   367   3     0.44240349211026625      3.6601877765260356      27.562636613583297
   368   3    0.014062568336420148      4.8641765793439911      28.651595258139238
   369   3      4.1288931138678402      2.7704890489242722      23.239453251184241
   370   3      5.4429975163226434      2.3035044774231292       22.23982294242526
   371   3      3.4327124348563247      3.3767241295910528      43.519701559575438
   372   3      3.9424929825513906      3.7741033154985391      44.938869903196739
   373   3      4.8045465457171757      6.5509366575099346      18.560129471685119
   374   3      5.3243478698952771      8.2188191006050371      18.458654569125166
   375   3      7.8119857203180123      7.4157401499656768      18.471082643531116
   376   3      7.0326044633012268      5.7858386042723788      18.646418679625867
   377   3      5.9705396285912338      6.5475044866649332      20.902512782524802
   378   3      6.3393680368340837      8.2562123306679016      20.355801437032866
   379   3      8.6319181763071704      6.1932555375875431      20.714781301531126
   380   3      8.0456654910527412      6.9820062455668319      22.141512105657579
   381   3      9.5478316566884924      0.1973405012099218      21.689041791665471
   382   3      8.8074962245041082      0.5367552708781429      20.132674656168859
   383   3     0.23467635233656386      7.1140627981126414       19.13968063859803
   384   3      1.0471306125946729      7.1108578730321055      20.652157127778448
   385   3      1.2563155169615483    0.026629831967112407       19.68690922303924
   386   3      6.5131715238835035      1.6304624556992215      18.620744976844296
   387   3      8.1749263832135703      1.3262391083185958      18.208406974583305
   388   3      7.4204094867536341       3.742290190653895      19.153901500806029
   389   3      6.8744857143365952      3.8659159111815753      17.542538116230457
   390   3      8.7271897828268852      4.9798576324432249      17.206988910125975
   391   3       9.355931107277188      3.3516798216640589      16.824772987478561
   392   3      9.5833273763997919       4.849690545946685      19.415606243895994
   393   3     0.88927051855974248      4.8784719748175434      18.125471279564902
   394   3      1.0599225494446085      2.2970427552481789      18.638383607649132
   395   3      9.8854864586404911      2.5275128802555393      19.947543496289967
   396   3      2.6773854287873133       4.099527991521736      19.798450132601708
   397   3      2.4359315649757169      2.5293918680246801      20.655785461215476
   398   3      1.5199747772619914      3.9465691478539302      21.082985112995274
   399   4      5.5698847915114564      7.2021369395102814      18.117080670965812
   400   4      6.8728499195588437      6.8674212221177084      18.888324156235914
   401   4      6.7356684064240273      7.2174830683362554      20.374168012467013
   402   4      8.1548456925464983       7.139773595292831      21.072332735530988
   403   4      9.2529717414603603      8.2376112008198739      20.677697727409736
   404   4     0.56902619639612528      7.7478651792894384      19.938886751125413
   405   4      7.3691710439589952      1.9447863501944047      17.971172005327478
   406   4      7.6418595184684852      3.4487969698849126      18.124997353599802
   407   4      8.9652635302454389      3.9651359508873405      17.613222068510122
   408   4      0.1144191254427932      4.2585175317774651      18.641311683836467
   409   4     0.81511520073400456      3.0534710837332262      19.309482586378092
   410   4      1.9288087442718793      3.4335044781964186       20.25161706436181
