7                                       
    1.000000000000000     
     9.8399999999999999    0.0000000000000000    0.0000000000000000
     0.0000000000000000    8.5216999999999992    0.0000000000000000
     0.0000000000000000    0.0000000000000000   30.7665000000000006
   H    C    O    F    Ca
   108    12    40    16     8
Selective dynamics
Direct
  0.4818491834724228  0.8374383447784078  0.3996778314777684   T   T   T
  0.5577028142228929  0.0077940173519725  0.4091961365084468   T   T   T
  0.1295294574669729  0.5133263018320061  0.6124662352712864   T   T   T
 -0.0002975937862836  0.6168407407161766  0.6114022694028456   T   T   T
 -0.0923618077820553  0.7433622303972169  0.5357126538410630   T   T   T
 -0.1340779501915239  0.6891827995717731  0.4899300690335572   T   T   T
  0.6742280446597897  0.6818151806075118  0.7249951908031858   T   T   T
  0.7536932805606944  0.8578325275673084  0.7281548606186571   T   T   T
  0.8434516563913725  0.0359505882984668  0.6619816763704631   T   T   T
  0.7240458325985237  0.0499644352090976  0.6272319968712179   T   T   T
  0.5707173887957201  0.8412391071669312  0.7688168338115651   T   T   T
  0.4174253955251885  0.8641928137363917  0.7881857980047984   T   T   T
  0.2146428680647677  0.6578792216906486  0.4412832524504411   T   T   T
  0.2030878291364261  0.4763803485885313  0.4329751794443390   T   T   T
  0.2515542769759616  0.3270780267305097  0.4840035209862115   T   T   T
  0.0863342069460748  0.3057776928330042  0.4766627995438610   T   T   T
 -0.1150375991061723  0.6001196691202604  0.8110102057806727   T   T   T
 -0.1826598662289762  0.6584675960751504  0.7679746932901049   T   T   T
 -0.2459864790843866  0.5005167002924489  0.4471691139871663   T   T   T
 -0.1625722910943168  0.4380754860638582  0.4865940719300678   T   T   T
  0.3447584392058471  0.8816507089502106  0.4994306226483621   T   T   T
  0.4671529179369301  0.9121293857405920  0.4659797222288066   T   T   T
 -0.1323677150638326  0.2033104745150879  0.5008041413856226   T   T   T
 -0.0481174140096989  0.2694347496673477  0.5386379356280731   T   T   T
  0.0056504967835912  0.3329239282896335  0.6057160911916745   T   T   T
 -0.0272920855338459  0.1502463725828516  0.6021923372033103   T   T   T
  0.6124353676650754  0.6224619019818473  0.5751277615415213   T   T   T
  0.5257580403289237  0.7021716991210236  0.6119979471969308   T   T   T
  0.6643473673455534  0.5711590480308827  0.6550160008807562   T   T   T
  0.5554315528076882  0.4705790362776558  0.6839607244456924   T   T   T
  0.7132334438727654  0.3804420693502092  0.7158459026134361   T   T   T
  0.8092885190338638  0.3688519857828883  0.7591050373344510   T   T   T
  0.6209946055184088  0.5711543878045947  0.5060195693544242   T   T   T
  0.5137331883672694  0.7228697926795232  0.5141063373982038   T   T   T
  0.3276852948040898  0.4363616284544464  0.5764354034975239   T   T   T
  0.3223164714196651  0.5990335313516650  0.6047437883134990   T   T   T
  0.1667196384069510  0.1092458885459555  0.5686616451752722   T   T   T
  0.1919368643094704 -0.0202463335470509  0.5364232892946758   T   T   T
  0.3518288789900720  0.8305365143659253  0.6515923230597703   T   T   T
  0.3354856632673432  0.8856803515612284  0.5982566188758328   T   T   T
  0.6953410891814478  0.0537469456628763  0.5120415865924665   T   T   T
  0.8268364176416173 -0.0614788217758462  0.4948990663195790   T   T   T
  0.0173016657110350  0.6157086750510088  0.7319619883577629   T   T   T
  0.1035683723101402  0.5650453818254371  0.6924370678442070   T   T   T
 -0.0431737433728056  0.7336749545509512  0.3822984537551263   T   T   T
  0.0513647979408632  0.5975068339888535  0.3935134959687329   T   T   T
  0.2556861779280530  0.7553940802594423  0.7232262675311765   T   T   T
  0.3971710060881672  0.8567117140884073  0.7229460955257081   T   T   T
  0.5101476820521736  0.1523664171009265  0.6516810354775837   T   T   T
  0.4876860528313686 -0.0209582241684915  0.6258511011830631   T   T   T
  0.6084016594552297  0.2547164104080104  0.7682080719941724   T   T   T
  0.5039714841734566  0.1092806606377649  0.7698319555357088   T   T   T
  0.7282223542115337  0.2341258669963940  0.4078661686653671   T   T   T
  0.7301429879192134  0.0899731043262979  0.4418431071760319   T   T   T
  0.1768385618995610  0.9009602824175831  0.4565842292632988   T   T   T
  0.0777908054779881  0.8112216538088577  0.4921934159090894   T   T   T
  0.6463322143085016  0.4764764209478783  0.3862509543914408   T   T   T
  0.8114206948887537  0.5173653480138142  0.3822574664936724   T   T   T
  0.4273530599164030  0.5957447347967290  0.3506568564042782   T   T   T
  0.3849860134667592  0.5871192882353290  0.3968971498225573   T   T   T
  0.4258242892287870  0.2899377710569924  0.5283252767942469   T   T   T
  0.4290723091697151  0.4723307723253087  0.5169200191777843   T   T   T
  0.3138661202527421  0.0536605931552978  0.4058147257093085   T   T   T
  0.2187973708999666  0.1542418300757429  0.4355838741790437   T   T   T
  0.8012361774242549  0.7332914128300714  0.5957011074715514   T   T   T
 -0.1199532404329309  0.8786165714084031  0.6123825463883553   T   T   T
  0.3310854904754890  0.3014832348940457  0.7677274106754454   T   T   T
  0.2234178620689888  0.4182409539286536  0.7433319528615568   T   T   T
 -0.0472569241690030  0.0032326529715630  0.7306246110470739   T   T   T
  0.8133177741952179  0.1071240453643260  0.7280154826014634   T   T   T
  0.1547111074544817 -0.0938168679281686  0.7944681720574803   T   T   T
  0.1709064096549715 -0.2255495332162751  0.8290838273935607   T   T   T
  0.2094807377382815  0.9744402833517606  0.7255274687985108   T   T   T
  0.1525903332294172  0.1284849747845853  0.7469020793406222   T   T   T
  0.5659370331552365  0.1202499499410163  0.5686766189020551   T   T   T
  0.5023903187434685  0.0605039872930722  0.5243894504844958   T   T   T
  0.0518148764713625  0.0059599727282906  0.4004482429185071   T   T   T
 -0.1123185100544446  0.0160553141694794  0.3966535044662776   T   T   T
  0.3785985614106681  0.3539227488674924  0.6508246580923190   T   T   T
  0.3605135224829968  0.2757695266281376  0.6998886792261998   T   T   T
 -0.5491916563918355  0.3181655492016108  0.3273739869338405   T   T   T
 -0.5840060632002072  0.1521546479553885  0.3485210158551368   T   T   T
 -0.4743570657402323  0.1558548573401856  0.3016110844765066   T   T   T
 -0.6713614664698981  0.0751350262909722  0.2700830388541578   T   T   T
 -0.6590022667248476  0.2678453863578966  0.2569714798037129   T   T   T
  0.1782666156064374  0.3327207346066764  0.3229388863117232   T   T   T
  0.1425135856230197  0.1281281204004713  0.3262104744640337   T   T   T
  0.0725410832969117  0.0842363041949447  0.2579512188369251   T   T   T
  0.0597509540417511  0.2750006583828183  0.2432173498259103   T   T   T
 -0.1185663029574812  0.3099527450833423  0.3154774853677124   T   T   T
 -0.0713877737168028  0.0978870050600015  0.3206616665731047   T   T   T
 -0.1629965078672158  0.0726555053119740  0.2372221715173558   T   T   T
 -0.2154843251331306  0.2720567639758928  0.2429205578166655   T   T   T
 -0.2930193067295829  0.1298112850300710  0.2771842840197903   T   T   T
  0.1896881898977924  0.6308038391011810  0.3037395443897491   T   T   T
  0.2153483445912783  0.5160345696701772  0.2545802973857461   T   T   T
  0.2011475009220998  0.7251523818958442  0.2535483494674950   T   T   T
 -0.0184092119650922  0.5070914654722675  0.2825957405523969   T   T   T
 -0.0109703358985849  0.5661049298739962  0.2286848175619892   T   T   T
 -0.0671949227408476  0.8377964693146096  0.2514228027103618   T   T   T
 -0.0274076848033868  0.7814250284630841  0.3087270884323115   T   T   T
  0.7401330813035886  0.8056620191607555  0.3099383685326847   T   T   T
  0.7779112100405805  0.6104292868960346  0.3125222356831255   T   T   T
  0.7086619816004008  0.5583627196813606  0.2381441700718955   T   T   T
  0.6650859640864533  0.7505037745703812  0.2258966642462593   T   T   T
  0.5392750612382767  0.5810184185452025  0.3000723546269847   T   T   T
  0.4715617385046387  0.5781832634067631  0.2454520372846427   T   T   T
  0.4754386339656344  0.7600700872555425  0.2769828355412973   T   T   T
 -0.5709089524910066  0.1981266451072495  0.3160238102241671   T   T   T
 -0.6816628036743863  0.1902739463417671  0.2850561171737963   T   T   T
  0.1764385172364778  0.2202123540763123  0.3049529424287160   T   T   T
  0.0547000495269123  0.2020204116280744  0.2735699688210948   T   T   T
 -0.0814572359212782  0.2022783609526110  0.2953509669900097   T   T   T
 -0.1897932511764460  0.1621763481105543  0.2624310390234407   T   T   T
  0.1634443937459977  0.6250072474136669  0.2676872694100617   T   T   T
  0.0169035609687889  0.6110032852784362  0.2630799114384510   T   T   T
 -0.0710298934109193  0.7500823665027212  0.2782539845178481   T   T   T
  0.7763413820746544  0.7091700971141517  0.2880972110062229   T   T   T
  0.6756106482576721  0.6673798943620020  0.2523407138484188   T   T   T
  0.5261760822473034  0.6497394796791153  0.2705377612976515   T   T   T
  0.4784516084176063  0.9473177719610750  0.4169263058776795   T   T   T
  0.0374878150094488  0.5164803296452306  0.6239383907706434   T   T   T
 -0.0831090451944779  0.7740759037838131  0.5061054775527122   T   T   T
  0.7129475292697683  0.7661382398861883  0.7456907855972370   T   T   T
  0.8248719583353675  0.0453540014568911  0.6293370673935841   T   T   T
  0.4759070240744651  0.9019630639749776  0.7662767881269104   T   T   T
  0.2182759435963632  0.5790485482270130  0.4182043201013121   T   T   T
  0.1819435770641068  0.3188147066058922  0.4623267314790527   T   T   T
 -0.1166018921948928  0.5797628135462336  0.7796433089025017   T   T   T
  0.7672305767190662  0.5193416190317867  0.4779886426188544   T   T   T
  0.4475701635242944  0.8958022145447936  0.4972411985521734   T   T   T
 -0.0686257174005132  0.2934226090095969  0.5059306471246722   T   T   T
  0.0290005364716983  0.2256679668595381  0.5886995962696671   T   T   T
  0.6221991764056970  0.6645460792925412  0.6056620469895984   T   T   T
  0.6489298883892028  0.5273105459607084  0.6860224753082828   T   T   T
  0.7517609689836456  0.3063380220500901  0.7389580690368890   T   T   T
  0.5423315521383174  0.6116624055322096  0.5214300717597861   T   T   T
  0.3095126291175859  0.4869930458195375  0.6046841329475936   T   T   T
  0.2169653807770179  0.0086682251578751  0.5656738682913834   T   T   T
  0.3799946096200528  0.8147149294211754  0.6198570130421027   T   T   T
  0.7832635336685403  0.0455882651970241  0.4937295725813464   T   T   T
  0.1122099857262494  0.6024995116848919  0.7232906236316291   T   T   T
 -0.0443920486323338  0.6185559897268714  0.3845082709211509   T   T   T
  0.3118752752138890  0.8242154640771979  0.7040967748804442   T   T   T
  0.5481470561882368  0.0693471710430675  0.6315087340602136   T   T   T
  0.5084234273759416  0.2281031183844294  0.7731103971445786   T   T   T
  0.7180002730290285  0.1161851835619481  0.4109957266827962   T   T   T
  0.1740817841918091  0.8214462742971678  0.4816199162223215   T   T   T
  0.7395779188185491  0.4397070356955302  0.3944586483711224   T   T   T
  0.4646994650417528  0.6171602720114618  0.3784015522709167   T   T   T
  0.3649120407088504  0.3776930343178586  0.5229812409263912   T   T   T
  0.2267217614549995  0.0552755942648088  0.4198187618687186   T   T   T
 -0.0996460927359114  0.7689847907488269  0.5987463670733485   T   T   T
  0.2467688192598747  0.3088479832735435  0.7483737591813054   T   T   T
 -0.1467610948864011  0.0048125106199805  0.7201675050198666   T   T   T
  0.2244623331053089 -0.1453304729611176  0.8122429728815312   T   T   T
  0.1255263925622351  0.0173030818283564  0.7389155305934482   T   T   T
  0.5604267158207938  0.1397177062930220  0.5373432490081458   T   T   T
 -0.0282302785107800  0.9429008831429880  0.3922758324314746   T   T   T
  0.4265654902014922  0.3211122231538085  0.6777079822382128   T   T   T
  0.2872479999999982  0.1932959999999966  0.0822819999999993   F   F   F
  0.5243389999999977  0.1575610000000012  0.1378419999999991   F   F   F
  0.3039309999999986  0.4369719999999973  0.1683980000000034   F   F   F
  0.5250330000000005  0.9517680000000013  0.0351560000000006   F   F   F
  0.7776229999999984  0.1801109999999966  0.0844579999999979   F   F   F
  0.0266859999999980  0.1917699999999982  0.1411190000000033   F   F   F
  0.7652629999999974  0.4220510000000033  0.1705419999999975   F   F   F
  0.0287900000000008  0.9544259999999980  0.0465310000000017   F   F   F
  0.2867919999999984  0.6915729999999982  0.0790999999999968   F   F   F
  0.5433680000000010  0.6785580000000024  0.1363550000000018   F   F   F
  0.2848139999999972  0.9368189999999998  0.1762250000000023   F   F   F
  0.5339310000000026  0.4508160000000032  0.0430840000000003   F   F   F
  0.7929209999999998  0.7024130000000000  0.0843289999999968   F   F   F
  0.0521979999999971  0.6938290000000009  0.1423679999999976   F   F   F
  0.7893899999999974  0.9270059999999987  0.1742020000000011   F   F   F
  0.0142110000000031  0.4450700000000012  0.0453150000000022   F   F   F
  0.3045070000000010  0.1886289999999988  0.1551290000000023   F   F   F
  0.5375000000000014  0.1847420000000000  0.0623039999999975   F   F   F
  0.7710110000000014  0.1783610000000024  0.1547899999999984   F   F   F
  0.0328700000000026  0.1971860000000021  0.0700539999999990   F   F   F
  0.2984739999999988  0.6919910000000016  0.1517029999999977   F   F   F
  0.5512829999999980  0.6972760000000022  0.0603940000000023   F   F   F
  0.7819819999999993  0.6820239999999984  0.1552599999999984   F   F   F
  0.0445289999999972  0.6871909999999986  0.0707290000000000   F   F   F
 
 -0.23498862E-01  0.94306894E-02  0.23903110E-01
  0.10207582E-01 -0.10777580E-03 -0.20544651E-01
 -0.10657632E-01 -0.40270373E-01 -0.33465375E-02
  0.24943020E-01 -0.19857939E-01  0.15191431E-01
  0.33421100E-01 -0.29025243E-02  0.80476127E-02
  0.58357437E-02  0.16918613E-01  0.15269543E-01
 -0.30294116E-01  0.39460085E-02 -0.13345681E-01
  0.14710075E-01 -0.92365035E-02  0.68730240E-02
 -0.17416476E-01 -0.12930707E-01 -0.87889744E-02
 -0.10328745E-01  0.31470730E-01  0.35601426E-02
 -0.11004589E-01  0.52534900E-02 -0.19102607E-01
 -0.16569506E-01  0.11252887E-01  0.38713827E-01
  0.35479064E-02  0.41497213E-02  0.15203994E-01
  0.80883003E-02  0.12342560E-01  0.30301595E-01
 -0.94567272E-02  0.31608734E-01  0.12607507E-02
  0.15232601E-01 -0.10727984E-01  0.33348147E-01
  0.96263010E-02 -0.21755543E-02  0.14782884E-01
  0.48902964E-03  0.29778190E-01 -0.80227696E-02
 -0.46301234E-02  0.48608814E-02 -0.96596740E-04
  0.22647943E-02  0.53626132E-02  0.10448025E-01
 -0.59605567E-02 -0.92524791E-03 -0.32765308E-02
 -0.67535989E-02 -0.15029109E-01  0.61325054E-02
 -0.99820676E-03 -0.71853508E-02  0.68801597E-02
  0.14778963E-01 -0.38795819E-02 -0.19010316E-01
  0.16601214E-01  0.26999395E-01 -0.55133558E-02
 -0.22999333E-02  0.11219746E-01  0.11014365E-01
 -0.42504854E-02 -0.79008723E-02  0.68083285E-02
 -0.26419951E-02  0.58512969E-02  0.24438781E-03
 -0.12466644E-01 -0.14729364E-01  0.16464621E-01
 -0.53563917E-02 -0.12445023E-02  0.88813533E-02
 -0.11024461E-01 -0.78728615E-02  0.22276855E-01
 -0.86879204E-02 -0.35453931E-02 -0.32944554E-02
  0.28911142E-01  0.19732356E-01 -0.10615722E-01
 -0.30540323E-02 -0.13539752E-01  0.75996886E-02
  0.21105972E-02 -0.51709776E-02 -0.10472010E-01
 -0.11018375E-02 -0.46951757E-02  0.36845584E-02
  0.11946566E-01  0.38050656E-02  0.23412778E-01
 -0.15861658E-01 -0.16893788E-02 -0.18207741E-01
  0.33934695E-01 -0.34564317E-01 -0.23089564E-01
 -0.34348849E-01 -0.14609795E-01 -0.24037995E-01
 -0.82158873E-02  0.17821512E-01  0.22210073E-01
 -0.13518673E-01 -0.11245957E-01  0.15030332E-01
  0.17734708E-01  0.26586585E-02  0.16268566E-01
 -0.34922935E-01 -0.21142483E-02 -0.29901440E-01
  0.24048490E-02 -0.16335153E-01 -0.19978241E-01
  0.68068172E-02 -0.10214431E-01  0.11486297E-01
  0.37849112E-01 -0.78136923E-02  0.83891172E-02
 -0.37072534E-02  0.79668124E-02  0.58160647E-01
  0.18947911E-02  0.25913748E-02  0.93418217E-02
 -0.52817916E-02  0.27712935E-01 -0.28756613E-02
 -0.15880355E-01  0.11723599E-01  0.44988370E-02
 -0.82733747E-02  0.37627974E-02 -0.48630370E-02
 -0.19148140E-01 -0.10576807E-01  0.51978183E-02
 -0.40374420E-02 -0.12308786E-02  0.15387941E-01
 -0.33813038E-02 -0.37285057E-02  0.11932798E-01
  0.23442667E-01  0.40612863E-02 -0.14657083E-01
  0.14087414E-01  0.60917392E-03  0.27398340E-01
  0.67162054E-02  0.52006671E-02 -0.95182390E-02
 -0.34264065E-03 -0.85144500E-02  0.63354704E-02
  0.12318329E-01  0.21432428E-01 -0.78108965E-02
 -0.19804612E-01  0.16234583E-02 -0.19810599E-01
 -0.24899739E-01  0.16051113E-01 -0.90640538E-02
 -0.48695118E-02  0.70010614E-02  0.12662328E-01
 -0.17776765E-01  0.20658695E-01  0.48336591E-02
 -0.17426602E-01 -0.12372232E-01  0.19202640E-01
 -0.62535061E-02 -0.85657371E-02 -0.13728014E-01
 -0.29895030E-02  0.17019232E-01  0.16932134E-01
 -0.97047912E-02 -0.12236741E-01  0.12941511E-01
 -0.14843043E-01 -0.23107571E-01  0.30019696E-01
  0.12198586E-01 -0.14701219E-01  0.11309217E-01
  0.25530944E-01  0.18626644E-01 -0.17161799E-01
  0.14366857E-01 -0.16951965E-01  0.11140528E-01
  0.50344679E-02  0.58632979E-04 -0.71809339E-02
 -0.10790688E-01 -0.91166757E-02  0.59605808E-03
 -0.18983325E-02  0.16225060E-01 -0.16358411E-01
 -0.48875580E-02 -0.65908493E-02 -0.14206766E-01
 -0.87890756E-02  0.73098470E-02  0.47895597E-02
  0.89420012E-02 -0.18871076E-01 -0.16424287E-01
 -0.59902440E-02  0.21687542E-02 -0.31566155E-03
 -0.73588667E-02 -0.21575675E-02  0.12136274E-01
 -0.23362363E-01 -0.47698110E-02  0.76668330E-02
  0.88072204E-02 -0.41044004E-02 -0.42137600E-03
  0.33704223E-02  0.12971790E-01  0.14642695E-01
  0.19183615E-01  0.34449520E-01 -0.23909960E-02
 -0.58170522E-02 -0.12637270E-03  0.32742004E-02
 -0.14569375E-02 -0.72069121E-02  0.23272533E-01
  0.24264791E-01  0.49313730E-03  0.27167715E-01
  0.40671104E-02  0.11572695E-01  0.72530026E-02
  0.13178302E-02 -0.15828810E-01  0.45528834E-02
  0.75281082E-02  0.78058193E-02  0.10111705E-01
  0.76527084E-02  0.78690553E-02 -0.34005048E-01
  0.10937583E-01  0.19372194E-01  0.17955581E-01
  0.13574203E-03 -0.35034813E-01  0.13362278E-01
 -0.25744534E-02 -0.17531054E-02  0.19989039E-01
 -0.15668284E-01  0.76481354E-02 -0.65652938E-02
 -0.18828870E-01  0.21032326E-01  0.91171605E-02
  0.10790664E-02 -0.94265559E-02  0.25163848E-03
  0.76288484E-02 -0.11337426E-01 -0.72726230E-03
  0.17999574E-01 -0.49669553E-02  0.29900553E-01
  0.15825776E-01  0.23661425E-01  0.64861185E-02
 -0.25269170E-01  0.39362211E-02 -0.19056191E-01
 -0.61766064E-02  0.17943992E-01 -0.11293012E-01
  0.57002810E-02  0.20733418E-01 -0.27935473E-01
  0.23861162E-01 -0.33467001E-01  0.66419900E-02
  0.11074121E-01 -0.18352284E-01 -0.20273082E-01
 -0.51204350E-01 -0.88634460E-02  0.21222644E-01
  0.12907908E-02  0.41385771E-02  0.92873933E-02
 -0.11164766E-01 -0.10602606E-01 -0.43299897E-03
  0.32972844E-02 -0.27099784E-02 -0.82176805E-02
  0.19662216E-02 -0.21617483E-02 -0.50814986E-02
 -0.62651702E-02  0.15479698E-02 -0.31978189E-02
 -0.34155504E-02  0.50023466E-03  0.69044173E-02
 -0.46108202E-02  0.70813517E-02  0.48252478E-02
 -0.16253615E-02 -0.79316963E-02 -0.22331333E-02
 -0.47382662E-02 -0.32996009E-02 -0.24067076E-02
 -0.33201313E-02  0.47137130E-02 -0.10440343E-01
  0.49126558E-02  0.56155348E-02 -0.40049822E-02
 -0.81309843E-03 -0.90060998E-02  0.23103572E-02
  0.15590600E-02 -0.81145776E-02 -0.23997692E-02
  0.77997929E-03  0.27550201E-02  0.42395751E-02
  0.43554323E-02 -0.60399359E-02 -0.83039514E-03
  0.35393160E-02 -0.39907691E-03  0.59238208E-02
  0.36163029E-03 -0.75784434E-03  0.13951958E-02
  0.62260173E-02  0.25655880E-02 -0.69621087E-02
  0.42575186E-02  0.22016677E-02 -0.15692577E-02
 -0.54167791E-03 -0.17027691E-03  0.14266943E-02
  0.10082401E-03  0.17715273E-02  0.88837383E-02
 -0.43132118E-02  0.40219037E-02 -0.91547930E-02
  0.44647659E-02  0.33048734E-02  0.35044165E-02
 -0.39431905E-02 -0.18028042E-02 -0.19599846E-02
 -0.30585977E-03 -0.44937322E-02  0.39281186E-02
 -0.25585554E-02  0.45167649E-02 -0.36802581E-02
 -0.37484231E-03 -0.49074938E-03 -0.12658562E-02
 -0.32565604E-02 -0.13694639E-03  0.70202230E-03
 -0.41270809E-02  0.26270343E-02 -0.29642227E-02
  0.27290541E-03 -0.18022501E-02 -0.37422869E-02
  0.16358400E-02  0.16215114E-02 -0.14697564E-04
 -0.21679988E-02  0.27448610E-02  0.19434399E-02
 -0.52695456E-02  0.72160655E-04 -0.36089938E-02
  0.13727628E-02  0.71356776E-03 -0.49889537E-02
 -0.24312158E-02  0.31676074E-02 -0.33139070E-02
  0.13847523E-02 -0.44525771E-03 -0.31552019E-02
  0.25421441E-02 -0.33898161E-02 -0.10725394E-02
  0.45340453E-02  0.30802249E-02 -0.42641578E-02
 -0.11774335E-02 -0.61061956E-03 -0.48461649E-02
  0.10874972E-02  0.14244734E-02  0.37693105E-02
  0.46725823E-02 -0.62522696E-02  0.43473193E-02
 -0.14829114E-02  0.14065395E-02  0.18685546E-02
  0.10436115E-02  0.78004220E-02  0.24034295E-02
 -0.83075968E-03  0.14218409E-02 -0.15068342E-02
 -0.17396021E-02 -0.15749776E-02 -0.89149733E-02
 -0.42329827E-02 -0.17628560E-03 -0.71551249E-02
  0.76977428E-03  0.76167001E-02  0.80552323E-03
  0.20128017E-02 -0.75254428E-02  0.27953523E-02
 -0.52679315E-02 -0.32305239E-03 -0.34797522E-02
  0.10634718E-02 -0.23187253E-02  0.53363626E-03
  0.14228728E-02 -0.66232811E-02 -0.62910819E-02
 -0.13283815E-02 -0.63914056E-02  0.21232967E-02
 -0.31851648E-02  0.37283640E-02  0.53580055E-02
 -0.98281661E-03 -0.24585369E-02 -0.64082235E-03
  0.00000000E+00  0.00000000E+00  0.00000000E+00
  0.00000000E+00  0.00000000E+00  0.00000000E+00
  0.00000000E+00  0.00000000E+00  0.00000000E+00
  0.00000000E+00  0.00000000E+00  0.00000000E+00
  0.00000000E+00  0.00000000E+00  0.00000000E+00
  0.00000000E+00  0.00000000E+00  0.00000000E+00
  0.00000000E+00  0.00000000E+00  0.00000000E+00
  0.00000000E+00  0.00000000E+00  0.00000000E+00
  0.00000000E+00  0.00000000E+00  0.00000000E+00
  0.00000000E+00  0.00000000E+00  0.00000000E+00
  0.00000000E+00  0.00000000E+00  0.00000000E+00
  0.00000000E+00  0.00000000E+00  0.00000000E+00
  0.00000000E+00  0.00000000E+00  0.00000000E+00
  0.00000000E+00  0.00000000E+00  0.00000000E+00
  0.00000000E+00  0.00000000E+00  0.00000000E+00
  0.00000000E+00  0.00000000E+00  0.00000000E+00
  0.00000000E+00  0.00000000E+00  0.00000000E+00
  0.00000000E+00  0.00000000E+00  0.00000000E+00
  0.00000000E+00  0.00000000E+00  0.00000000E+00
  0.00000000E+00  0.00000000E+00  0.00000000E+00
  0.00000000E+00  0.00000000E+00  0.00000000E+00
  0.00000000E+00  0.00000000E+00  0.00000000E+00
  0.00000000E+00  0.00000000E+00  0.00000000E+00
  0.00000000E+00  0.00000000E+00  0.00000000E+00
 
            1
    1.000000000000000     
 -0.34328199E+00  0.26737891E-02  0.34492920E-02 -0.34634353E+00
  0.47946109E+00  0.83854501E+00  0.40045475E+00
  0.55874017E+00  0.77813701E-02  0.40852838E+00
  0.12844636E+00  0.50860068E+00  0.61235746E+00
  0.22372660E-02  0.61451046E+00  0.61189603E+00
  0.91103465E+00  0.74302163E+00  0.53597422E+00
  0.86651511E+00  0.69116816E+00  0.49042637E+00
  0.67114937E+00  0.68227823E+00  0.72456142E+00
  0.75518821E+00  0.85674865E+00  0.72837825E+00
  0.84168169E+00  0.34433202E-01  0.66169601E+00
  0.72299616E+00  0.53657446E-01  0.62734771E+00
  0.56959904E+00  0.84185559E+00  0.76819594E+00
  0.41574150E+00  0.86551331E+00  0.78944411E+00
  0.21500343E+00  0.65836618E+00  0.44177743E+00
  0.20390981E+00  0.47782872E+00  0.43396007E+00
  0.25059323E+00  0.33078723E+00  0.48404450E+00
  0.87882236E-01  0.30451879E+00  0.47774671E+00
  0.88594068E+00  0.59986437E+00  0.81149069E+00
  0.81738983E+00  0.66196199E+00  0.76771393E+00
  0.75354298E+00  0.50108711E+00  0.44716597E+00
  0.83765787E+00  0.43870478E+00  0.48693366E+00
  0.34415269E+00  0.88154213E+00  0.49932413E+00
  0.46646658E+00  0.91036576E+00  0.46617905E+00
  0.86753084E+00  0.20246729E+00  0.50102777E+00
  0.95338451E+00  0.26897949E+00  0.53802005E+00
  0.73376120E-02  0.33609224E+00  0.60553689E+00
  0.97247418E+00  0.15156298E+00  0.60255034E+00
  0.61200341E+00  0.62153475E+00  0.57534905E+00
  0.52548954E+00  0.70285833E+00  0.61200589E+00
  0.66308043E+00  0.56943059E+00  0.65555115E+00
  0.55488720E+00  0.47043300E+00  0.68424939E+00
  0.71211307E+00  0.37951821E+00  0.71656996E+00
  0.80840560E+00  0.36843594E+00  0.75899796E+00
  0.62393273E+00  0.57346993E+00  0.50567453E+00
  0.51342282E+00  0.72128094E+00  0.51435335E+00
  0.32789979E+00  0.43575483E+00  0.57609503E+00
  0.32220450E+00  0.59848256E+00  0.60486355E+00
  0.16793372E+00  0.10969240E+00  0.56942263E+00
  0.19032491E+00  0.97955542E+00  0.53583149E+00
  0.35527753E+00  0.82648048E+00  0.65084185E+00
  0.33199493E+00  0.88396593E+00  0.59747531E+00
  0.69450614E+00  0.55838255E-01  0.51276348E+00
  0.82546257E+00  0.93720149E+00  0.49538760E+00
  0.19103973E-01  0.61602066E+00  0.73249076E+00
  0.10001929E+00  0.56479728E+00  0.69146518E+00
  0.95707065E+00  0.73175807E+00  0.38164910E+00
  0.52056548E-01  0.59630820E+00  0.39388683E+00
  0.25953263E+00  0.75447716E+00  0.72349894E+00
  0.39679425E+00  0.85764660E+00  0.72483648E+00
  0.51034024E+00  0.15267051E+00  0.65198467E+00
  0.48714929E+00  0.98229382E+00  0.62575763E+00
  0.60678780E+00  0.25609215E+00  0.76835430E+00
  0.50313069E+00  0.10972222E+00  0.76967389E+00
  0.72627640E+00  0.23288471E+00  0.40803511E+00
  0.72973268E+00  0.89828664E-01  0.44234326E+00
  0.17649493E+00  0.90052275E+00  0.45697208E+00
  0.80173190E-01  0.81169824E+00  0.49171702E+00
  0.64776386E+00  0.47654791E+00  0.38714148E+00
  0.81210324E+00  0.51797563E+00  0.38194810E+00
  0.42731824E+00  0.59474559E+00  0.35086278E+00
  0.38623788E+00  0.58963433E+00  0.39664327E+00
  0.42381163E+00  0.29012828E+00  0.52768138E+00
  0.42654185E+00  0.47421433E+00  0.51662541E+00
  0.31337125E+00  0.54482150E-01  0.40622629E+00
  0.21699079E+00  0.15666608E+00  0.43574098E+00
  0.79946518E+00  0.73183956E+00  0.59632525E+00
  0.87941124E+00  0.87761140E+00  0.61193635E+00
  0.33078168E+00  0.30348040E+00  0.76827775E+00
  0.22243160E+00  0.41680500E+00  0.74375259E+00
  0.95123464E+00  0.52103780E-03  0.73160034E+00
  0.81455747E+00  0.10539889E+00  0.72838306E+00
  0.15730572E+00  0.90836892E+00  0.79391036E+00
  0.17236646E+00  0.77246120E+00  0.82944593E+00
  0.20999237E+00  0.97444716E+00  0.72529407E+00
  0.15149372E+00  0.12741516E+00  0.74692145E+00
  0.56574411E+00  0.12215392E+00  0.56814492E+00
  0.50189362E+00  0.59730568E-01  0.52392769E+00
  0.50921678E-01  0.68177648E-02  0.40060392E+00
  0.88859023E+00  0.13840841E-01  0.39611967E+00
  0.37798980E+00  0.35417725E+00  0.65081440E+00
  0.35976567E+00  0.27551634E+00  0.70028314E+00
  0.44843412E+00  0.31760582E+00  0.32762318E+00
  0.41688898E+00  0.15167301E+00  0.34850732E+00
  0.52598546E+00  0.15737706E+00  0.30208701E+00
  0.33058809E+00  0.79177591E-01  0.27000532E+00
  0.34040657E+00  0.26783056E+00  0.25707790E+00
  0.17811855E+00  0.33187502E+00  0.32369531E+00
  0.14497952E+00  0.12818599E+00  0.32709350E+00
  0.72954408E-01  0.85594331E-01  0.25818696E+00
  0.59884880E-01  0.27314319E+00  0.24336533E+00
  0.88219875E+00  0.31086874E+00  0.31580614E+00
  0.92938994E+00  0.98810419E-01  0.31955640E+00
  0.83811504E+00  0.74928783E-01  0.23780578E+00
  0.78452947E+00  0.26794552E+00  0.24335487E+00
  0.70671906E+00  0.12960556E+00  0.27783399E+00
  0.18809588E+00  0.63170133E+00  0.30352615E+00
  0.21343484E+00  0.51850266E+00  0.25487663E+00
  0.20125716E+00  0.72404620E+00  0.25355653E+00
  0.98236608E+00  0.50576105E+00  0.28257210E+00
  0.99085889E+00  0.56552207E+00  0.22965667E+00
  0.93441339E+00  0.84057308E+00  0.25163362E+00
  0.97002431E+00  0.78188693E+00  0.30810771E+00
  0.73950538E+00  0.80776770E+00  0.30957131E+00
  0.77849051E+00  0.61286230E+00  0.31161425E+00
  0.71108690E+00  0.55443545E+00  0.23836005E+00
  0.66621138E+00  0.74835018E+00  0.22523773E+00
  0.53407137E+00  0.57997832E+00  0.30076215E+00
  0.47169292E+00  0.57866891E+00  0.24575390E+00
  0.47430400E+00  0.75882590E+00  0.27696876E+00
  0.42942614E+00  0.19780864E+00  0.31575671E+00
  0.31853702E+00  0.19002027E+00  0.28489095E+00
  0.17580181E+00  0.22039400E+00  0.30484900E+00
  0.54352941E-01  0.20207911E+00  0.27379438E+00
  0.91807418E+00  0.20310934E+00  0.29550780E+00
  0.81004157E+00  0.16124558E+00  0.26235846E+00
  0.16296286E+00  0.62462005E+00  0.26760904E+00
  0.16566149E-01  0.61155643E+00  0.26274057E+00
  0.92946936E+00  0.75074134E+00  0.27812381E+00
  0.77625875E+00  0.70811325E+00  0.28817230E+00
  0.67576909E+00  0.66642767E+00  0.25226271E+00
  0.52625535E+00  0.65006277E+00  0.27067556E+00
  0.47889423E+00  0.94660900E+00  0.41689932E+00
  0.37847502E-01  0.51643350E+00  0.62413093E+00
  0.91692771E+00  0.77398697E+00  0.50615083E+00
  0.71358025E+00  0.76643931E+00  0.74546450E+00
  0.82530463E+00  0.45612362E-01  0.62928606E+00
  0.47585198E+00  0.90194308E+00  0.76632316E+00
  0.21828619E+00  0.57925643E+00  0.41849307E+00
  0.18150524E+00  0.31928667E+00  0.46202917E+00
  0.88385184E+00  0.58015063E+00  0.77975721E+00
  0.76682985E+00  0.51913006E+00  0.47792494E+00
  0.44753908E+00  0.89527489E+00  0.49736887E+00
  0.93111427E+00  0.29395264E+00  0.50581103E+00
  0.28962443E-01  0.22561038E+00  0.58865845E+00
  0.62186823E+00  0.66453001E+00  0.60568486E+00
  0.64851047E+00  0.52761882E+00  0.68592613E+00
  0.75178870E+00  0.30612653E+00  0.73883643E+00
  0.54249780E+00  0.61185269E+00  0.52142959E+00
  0.30929230E+00  0.48731515E+00  0.60474730E+00
  0.21642986E+00  0.86766930E-02  0.56555657E+00
  0.38013412E+00  0.81479866E+00  0.61969486E+00
  0.78301646E+00  0.45959976E-01  0.49362186E+00
  0.11235071E+00  0.60244726E+00  0.72318807E+00
  0.95586630E+00  0.61815820E+00  0.38447341E+00
  0.31233605E+00  0.82457692E+00  0.70395818E+00
  0.54802740E+00  0.69275516E-01  0.63135122E+00
  0.50853395E+00  0.22827028E+00  0.77323291E+00
  0.71847513E+00  0.11545150E+00  0.41113703E+00
  0.17393108E+00  0.82161133E+00  0.48168065E+00
  0.73968398E+00  0.44062240E+00  0.39453677E+00
  0.46461504E+00  0.61732712E+00  0.37835258E+00
  0.36473525E+00  0.37750821E+00  0.52269148E+00
  0.22629158E+00  0.55254908E-01  0.41958620E+00
  0.90043214E+00  0.76987859E+00  0.59877255E+00
  0.24697337E+00  0.30796489E+00  0.74846462E+00
  0.85270355E+00  0.47746012E-02  0.72005440E+00
  0.22457041E+00  0.85439743E+00  0.81226032E+00
  0.12567099E+00  0.16525856E-01  0.73871105E+00
  0.56029172E+00  0.13896769E+00  0.53741226E+00
  0.97144603E+00  0.94333840E+00  0.39244998E+00
  0.42646561E+00  0.32082372E+00  0.67768715E+00
  0.28724800E+00  0.19329600E+00  0.82282000E-01
  0.52433900E+00  0.15756100E+00  0.13784200E+00
  0.30393100E+00  0.43697200E+00  0.16839800E+00
  0.52503300E+00  0.95176800E+00  0.35156000E-01
  0.77762300E+00  0.18011100E+00  0.84458000E-01
  0.26686000E-01  0.19177000E+00  0.14111900E+00
  0.76526300E+00  0.42205100E+00  0.17054200E+00
  0.28790000E-01  0.95442600E+00  0.46531000E-01
  0.28679200E+00  0.69157300E+00  0.79100000E-01
  0.54336800E+00  0.67855800E+00  0.13635500E+00
  0.28481400E+00  0.93681900E+00  0.17622500E+00
  0.53393100E+00  0.45081600E+00  0.43084000E-01
  0.79292100E+00  0.70241300E+00  0.84329000E-01
  0.52198000E-01  0.69382900E+00  0.14236800E+00
  0.78939000E+00  0.92700600E+00  0.17420200E+00
  0.14211000E-01  0.44507000E+00  0.45315000E-01
  0.30450700E+00  0.18862900E+00  0.15512900E+00
  0.53750000E+00  0.18474200E+00  0.62304000E-01
  0.77101100E+00  0.17836100E+00  0.15479000E+00
  0.32870000E-01  0.19718600E+00  0.70054000E-01
  0.29847400E+00  0.69199100E+00  0.15170300E+00
  0.55128300E+00  0.69727600E+00  0.60394000E-01
  0.78198200E+00  0.68202400E+00  0.15526000E+00
  0.44529000E-01  0.68719100E+00  0.70729000E-01
  0.00000000E+00  0.00000000E+00  0.00000000E+00
  0.00000000E+00  0.00000000E+00  0.00000000E+00
  0.00000000E+00  0.00000000E+00  0.00000000E+00
  0.00000000E+00  0.00000000E+00  0.00000000E+00
  0.00000000E+00  0.00000000E+00  0.00000000E+00
  0.00000000E+00  0.00000000E+00  0.00000000E+00
  0.00000000E+00  0.00000000E+00  0.00000000E+00
  0.00000000E+00  0.00000000E+00  0.00000000E+00
  0.00000000E+00  0.00000000E+00  0.00000000E+00
  0.00000000E+00  0.00000000E+00  0.00000000E+00
  0.00000000E+00  0.00000000E+00  0.00000000E+00
  0.00000000E+00  0.00000000E+00  0.00000000E+00
  0.00000000E+00  0.00000000E+00  0.00000000E+00
  0.00000000E+00  0.00000000E+00  0.00000000E+00
  0.00000000E+00  0.00000000E+00  0.00000000E+00
  0.00000000E+00  0.00000000E+00  0.00000000E+00
  0.00000000E+00  0.00000000E+00  0.00000000E+00
  0.00000000E+00  0.00000000E+00  0.00000000E+00
  0.00000000E+00  0.00000000E+00  0.00000000E+00
  0.00000000E+00  0.00000000E+00  0.00000000E+00
  0.00000000E+00  0.00000000E+00  0.00000000E+00
  0.00000000E+00  0.00000000E+00  0.00000000E+00
  0.00000000E+00  0.00000000E+00  0.00000000E+00
  0.00000000E+00  0.00000000E+00  0.00000000E+00
  0.00000000E+00  0.00000000E+00  0.00000000E+00
  0.00000000E+00  0.00000000E+00  0.00000000E+00
  0.00000000E+00  0.00000000E+00  0.00000000E+00
  0.00000000E+00  0.00000000E+00  0.00000000E+00
  0.00000000E+00  0.00000000E+00  0.00000000E+00
  0.00000000E+00  0.00000000E+00  0.00000000E+00
  0.00000000E+00  0.00000000E+00  0.00000000E+00
  0.00000000E+00  0.00000000E+00  0.00000000E+00
  0.00000000E+00  0.00000000E+00  0.00000000E+00
  0.00000000E+00  0.00000000E+00  0.00000000E+00
  0.00000000E+00  0.00000000E+00  0.00000000E+00
  0.00000000E+00  0.00000000E+00  0.00000000E+00
  0.00000000E+00  0.00000000E+00  0.00000000E+00
  0.00000000E+00  0.00000000E+00  0.00000000E+00
  0.00000000E+00  0.00000000E+00  0.00000000E+00
  0.00000000E+00  0.00000000E+00  0.00000000E+00
  0.00000000E+00  0.00000000E+00  0.00000000E+00
  0.00000000E+00  0.00000000E+00  0.00000000E+00
  0.00000000E+00  0.00000000E+00  0.00000000E+00
  0.00000000E+00  0.00000000E+00  0.00000000E+00
  0.00000000E+00  0.00000000E+00  0.00000000E+00
  0.00000000E+00  0.00000000E+00  0.00000000E+00
  0.00000000E+00  0.00000000E+00  0.00000000E+00
  0.00000000E+00  0.00000000E+00  0.00000000E+00
  0.00000000E+00  0.00000000E+00  0.00000000E+00
  0.00000000E+00  0.00000000E+00  0.00000000E+00
  0.00000000E+00  0.00000000E+00  0.00000000E+00
  0.00000000E+00  0.00000000E+00  0.00000000E+00
  0.00000000E+00  0.00000000E+00  0.00000000E+00
  0.00000000E+00  0.00000000E+00  0.00000000E+00
  0.00000000E+00  0.00000000E+00  0.00000000E+00
  0.00000000E+00  0.00000000E+00  0.00000000E+00
  0.00000000E+00  0.00000000E+00  0.00000000E+00
  0.00000000E+00  0.00000000E+00  0.00000000E+00
  0.00000000E+00  0.00000000E+00  0.00000000E+00
  0.00000000E+00  0.00000000E+00  0.00000000E+00
  0.00000000E+00  0.00000000E+00  0.00000000E+00
  0.00000000E+00  0.00000000E+00  0.00000000E+00
  0.00000000E+00  0.00000000E+00  0.00000000E+00
  0.00000000E+00  0.00000000E+00  0.00000000E+00
  0.00000000E+00  0.00000000E+00  0.00000000E+00
  0.00000000E+00  0.00000000E+00  0.00000000E+00
  0.00000000E+00  0.00000000E+00  0.00000000E+00
  0.00000000E+00  0.00000000E+00  0.00000000E+00
  0.00000000E+00  0.00000000E+00  0.00000000E+00
  0.00000000E+00  0.00000000E+00  0.00000000E+00
  0.00000000E+00  0.00000000E+00  0.00000000E+00
  0.00000000E+00  0.00000000E+00  0.00000000E+00
  0.00000000E+00  0.00000000E+00  0.00000000E+00
  0.00000000E+00  0.00000000E+00  0.00000000E+00
  0.00000000E+00  0.00000000E+00  0.00000000E+00
  0.00000000E+00  0.00000000E+00  0.00000000E+00
  0.00000000E+00  0.00000000E+00  0.00000000E+00
  0.00000000E+00  0.00000000E+00  0.00000000E+00
  0.00000000E+00  0.00000000E+00  0.00000000E+00
  0.00000000E+00  0.00000000E+00  0.00000000E+00
  0.00000000E+00  0.00000000E+00  0.00000000E+00
  0.00000000E+00  0.00000000E+00  0.00000000E+00
  0.00000000E+00  0.00000000E+00  0.00000000E+00
  0.00000000E+00  0.00000000E+00  0.00000000E+00
  0.00000000E+00  0.00000000E+00  0.00000000E+00
  0.00000000E+00  0.00000000E+00  0.00000000E+00
  0.00000000E+00  0.00000000E+00  0.00000000E+00
  0.00000000E+00  0.00000000E+00  0.00000000E+00
  0.00000000E+00  0.00000000E+00  0.00000000E+00
  0.00000000E+00  0.00000000E+00  0.00000000E+00
  0.00000000E+00  0.00000000E+00  0.00000000E+00
  0.00000000E+00  0.00000000E+00  0.00000000E+00
  0.00000000E+00  0.00000000E+00  0.00000000E+00
  0.00000000E+00  0.00000000E+00  0.00000000E+00
  0.00000000E+00  0.00000000E+00  0.00000000E+00
  0.00000000E+00  0.00000000E+00  0.00000000E+00
  0.00000000E+00  0.00000000E+00  0.00000000E+00
  0.00000000E+00  0.00000000E+00  0.00000000E+00
  0.00000000E+00  0.00000000E+00  0.00000000E+00
  0.00000000E+00  0.00000000E+00  0.00000000E+00
  0.00000000E+00  0.00000000E+00  0.00000000E+00
  0.00000000E+00  0.00000000E+00  0.00000000E+00
  0.00000000E+00  0.00000000E+00  0.00000000E+00
  0.00000000E+00  0.00000000E+00  0.00000000E+00
  0.00000000E+00  0.00000000E+00  0.00000000E+00
  0.00000000E+00  0.00000000E+00  0.00000000E+00
  0.00000000E+00  0.00000000E+00  0.00000000E+00
  0.00000000E+00  0.00000000E+00  0.00000000E+00
  0.00000000E+00  0.00000000E+00  0.00000000E+00
  0.00000000E+00  0.00000000E+00  0.00000000E+00
  0.00000000E+00  0.00000000E+00  0.00000000E+00
  0.00000000E+00  0.00000000E+00  0.00000000E+00
  0.00000000E+00  0.00000000E+00  0.00000000E+00
  0.00000000E+00  0.00000000E+00  0.00000000E+00
  0.00000000E+00  0.00000000E+00  0.00000000E+00
  0.00000000E+00  0.00000000E+00  0.00000000E+00
  0.00000000E+00  0.00000000E+00  0.00000000E+00
  0.00000000E+00  0.00000000E+00  0.00000000E+00
  0.00000000E+00  0.00000000E+00  0.00000000E+00
  0.00000000E+00  0.00000000E+00  0.00000000E+00
  0.00000000E+00  0.00000000E+00  0.00000000E+00
  0.00000000E+00  0.00000000E+00  0.00000000E+00
  0.00000000E+00  0.00000000E+00  0.00000000E+00
  0.00000000E+00  0.00000000E+00  0.00000000E+00
  0.00000000E+00  0.00000000E+00  0.00000000E+00
  0.00000000E+00  0.00000000E+00  0.00000000E+00
  0.00000000E+00  0.00000000E+00  0.00000000E+00
  0.00000000E+00  0.00000000E+00  0.00000000E+00
  0.00000000E+00  0.00000000E+00  0.00000000E+00
  0.00000000E+00  0.00000000E+00  0.00000000E+00
  0.00000000E+00  0.00000000E+00  0.00000000E+00
  0.00000000E+00  0.00000000E+00  0.00000000E+00
  0.00000000E+00  0.00000000E+00  0.00000000E+00
  0.00000000E+00  0.00000000E+00  0.00000000E+00
  0.00000000E+00  0.00000000E+00  0.00000000E+00
  0.00000000E+00  0.00000000E+00  0.00000000E+00
  0.00000000E+00  0.00000000E+00  0.00000000E+00
  0.00000000E+00  0.00000000E+00  0.00000000E+00
  0.00000000E+00  0.00000000E+00  0.00000000E+00
  0.00000000E+00  0.00000000E+00  0.00000000E+00
  0.00000000E+00  0.00000000E+00  0.00000000E+00
  0.00000000E+00  0.00000000E+00  0.00000000E+00
  0.00000000E+00  0.00000000E+00  0.00000000E+00
  0.00000000E+00  0.00000000E+00  0.00000000E+00
  0.00000000E+00  0.00000000E+00  0.00000000E+00
  0.00000000E+00  0.00000000E+00  0.00000000E+00
  0.00000000E+00  0.00000000E+00  0.00000000E+00
  0.00000000E+00  0.00000000E+00  0.00000000E+00
  0.00000000E+00  0.00000000E+00  0.00000000E+00
  0.00000000E+00  0.00000000E+00  0.00000000E+00
  0.00000000E+00  0.00000000E+00  0.00000000E+00
  0.00000000E+00  0.00000000E+00  0.00000000E+00
  0.00000000E+00  0.00000000E+00  0.00000000E+00
  0.00000000E+00  0.00000000E+00  0.00000000E+00
  0.00000000E+00  0.00000000E+00  0.00000000E+00
  0.00000000E+00  0.00000000E+00  0.00000000E+00
  0.00000000E+00  0.00000000E+00  0.00000000E+00
  0.00000000E+00  0.00000000E+00  0.00000000E+00
  0.00000000E+00  0.00000000E+00  0.00000000E+00
  0.00000000E+00  0.00000000E+00  0.00000000E+00
  0.00000000E+00  0.00000000E+00  0.00000000E+00
  0.00000000E+00  0.00000000E+00  0.00000000E+00
  0.00000000E+00  0.00000000E+00  0.00000000E+00
  0.00000000E+00  0.00000000E+00  0.00000000E+00
  0.00000000E+00  0.00000000E+00  0.00000000E+00
  0.00000000E+00  0.00000000E+00  0.00000000E+00
  0.00000000E+00  0.00000000E+00  0.00000000E+00
  0.00000000E+00  0.00000000E+00  0.00000000E+00
  0.00000000E+00  0.00000000E+00  0.00000000E+00
  0.00000000E+00  0.00000000E+00  0.00000000E+00
  0.00000000E+00  0.00000000E+00  0.00000000E+00
  0.00000000E+00  0.00000000E+00  0.00000000E+00
  0.00000000E+00  0.00000000E+00  0.00000000E+00
  0.00000000E+00  0.00000000E+00  0.00000000E+00
  0.00000000E+00  0.00000000E+00  0.00000000E+00
  0.00000000E+00  0.00000000E+00  0.00000000E+00
  0.00000000E+00  0.00000000E+00  0.00000000E+00
  0.00000000E+00  0.00000000E+00  0.00000000E+00
  0.00000000E+00  0.00000000E+00  0.00000000E+00
  0.00000000E+00  0.00000000E+00  0.00000000E+00
  0.00000000E+00  0.00000000E+00  0.00000000E+00
  0.00000000E+00  0.00000000E+00  0.00000000E+00
  0.00000000E+00  0.00000000E+00  0.00000000E+00
  0.00000000E+00  0.00000000E+00  0.00000000E+00
  0.00000000E+00  0.00000000E+00  0.00000000E+00
  0.00000000E+00  0.00000000E+00  0.00000000E+00
  0.00000000E+00  0.00000000E+00  0.00000000E+00
  0.00000000E+00  0.00000000E+00  0.00000000E+00
  0.00000000E+00  0.00000000E+00  0.00000000E+00
  0.00000000E+00  0.00000000E+00  0.00000000E+00
  0.00000000E+00  0.00000000E+00  0.00000000E+00
  0.00000000E+00  0.00000000E+00  0.00000000E+00
  0.00000000E+00  0.00000000E+00  0.00000000E+00
  0.00000000E+00  0.00000000E+00  0.00000000E+00
  0.00000000E+00  0.00000000E+00  0.00000000E+00
  0.00000000E+00  0.00000000E+00  0.00000000E+00
  0.00000000E+00  0.00000000E+00  0.00000000E+00
  0.00000000E+00  0.00000000E+00  0.00000000E+00
  0.00000000E+00  0.00000000E+00  0.00000000E+00
  0.00000000E+00  0.00000000E+00  0.00000000E+00
  0.00000000E+00  0.00000000E+00  0.00000000E+00
  0.00000000E+00  0.00000000E+00  0.00000000E+00
  0.00000000E+00  0.00000000E+00  0.00000000E+00
  0.00000000E+00  0.00000000E+00  0.00000000E+00
  0.00000000E+00  0.00000000E+00  0.00000000E+00
  0.00000000E+00  0.00000000E+00  0.00000000E+00
  0.00000000E+00  0.00000000E+00  0.00000000E+00
  0.00000000E+00  0.00000000E+00  0.00000000E+00
  0.00000000E+00  0.00000000E+00  0.00000000E+00
  0.00000000E+00  0.00000000E+00  0.00000000E+00
  0.00000000E+00  0.00000000E+00  0.00000000E+00
  0.00000000E+00  0.00000000E+00  0.00000000E+00
  0.00000000E+00  0.00000000E+00  0.00000000E+00
  0.00000000E+00  0.00000000E+00  0.00000000E+00
  0.00000000E+00  0.00000000E+00  0.00000000E+00
  0.00000000E+00  0.00000000E+00  0.00000000E+00
  0.00000000E+00  0.00000000E+00  0.00000000E+00
  0.00000000E+00  0.00000000E+00  0.00000000E+00
  0.00000000E+00  0.00000000E+00  0.00000000E+00
  0.00000000E+00  0.00000000E+00  0.00000000E+00
  0.00000000E+00  0.00000000E+00  0.00000000E+00
  0.00000000E+00  0.00000000E+00  0.00000000E+00
  0.00000000E+00  0.00000000E+00  0.00000000E+00
  0.00000000E+00  0.00000000E+00  0.00000000E+00
  0.00000000E+00  0.00000000E+00  0.00000000E+00
  0.00000000E+00  0.00000000E+00  0.00000000E+00
  0.00000000E+00  0.00000000E+00  0.00000000E+00
  0.00000000E+00  0.00000000E+00  0.00000000E+00
  0.00000000E+00  0.00000000E+00  0.00000000E+00
  0.00000000E+00  0.00000000E+00  0.00000000E+00
  0.00000000E+00  0.00000000E+00  0.00000000E+00
  0.00000000E+00  0.00000000E+00  0.00000000E+00
  0.00000000E+00  0.00000000E+00  0.00000000E+00
  0.00000000E+00  0.00000000E+00  0.00000000E+00
  0.00000000E+00  0.00000000E+00  0.00000000E+00
  0.00000000E+00  0.00000000E+00  0.00000000E+00
  0.00000000E+00  0.00000000E+00  0.00000000E+00
  0.00000000E+00  0.00000000E+00  0.00000000E+00
  0.00000000E+00  0.00000000E+00  0.00000000E+00
  0.00000000E+00  0.00000000E+00  0.00000000E+00
  0.00000000E+00  0.00000000E+00  0.00000000E+00
  0.00000000E+00  0.00000000E+00  0.00000000E+00
  0.00000000E+00  0.00000000E+00  0.00000000E+00
  0.00000000E+00  0.00000000E+00  0.00000000E+00
  0.00000000E+00  0.00000000E+00  0.00000000E+00
  0.00000000E+00  0.00000000E+00  0.00000000E+00
  0.00000000E+00  0.00000000E+00  0.00000000E+00
  0.00000000E+00  0.00000000E+00  0.00000000E+00
  0.00000000E+00  0.00000000E+00  0.00000000E+00
  0.00000000E+00  0.00000000E+00  0.00000000E+00
  0.00000000E+00  0.00000000E+00  0.00000000E+00
  0.00000000E+00  0.00000000E+00  0.00000000E+00
  0.00000000E+00  0.00000000E+00  0.00000000E+00
  0.00000000E+00  0.00000000E+00  0.00000000E+00
  0.00000000E+00  0.00000000E+00  0.00000000E+00
  0.00000000E+00  0.00000000E+00  0.00000000E+00
  0.00000000E+00  0.00000000E+00  0.00000000E+00
  0.00000000E+00  0.00000000E+00  0.00000000E+00
  0.00000000E+00  0.00000000E+00  0.00000000E+00
  0.00000000E+00  0.00000000E+00  0.00000000E+00
  0.00000000E+00  0.00000000E+00  0.00000000E+00
  0.00000000E+00  0.00000000E+00  0.00000000E+00
  0.00000000E+00  0.00000000E+00  0.00000000E+00
  0.00000000E+00  0.00000000E+00  0.00000000E+00
  0.00000000E+00  0.00000000E+00  0.00000000E+00
  0.00000000E+00  0.00000000E+00  0.00000000E+00
  0.00000000E+00  0.00000000E+00  0.00000000E+00
  0.00000000E+00  0.00000000E+00  0.00000000E+00
  0.00000000E+00  0.00000000E+00  0.00000000E+00
  0.00000000E+00  0.00000000E+00  0.00000000E+00
  0.00000000E+00  0.00000000E+00  0.00000000E+00
  0.00000000E+00  0.00000000E+00  0.00000000E+00
  0.00000000E+00  0.00000000E+00  0.00000000E+00
  0.00000000E+00  0.00000000E+00  0.00000000E+00
  0.00000000E+00  0.00000000E+00  0.00000000E+00
  0.00000000E+00  0.00000000E+00  0.00000000E+00
  0.00000000E+00  0.00000000E+00  0.00000000E+00
  0.00000000E+00  0.00000000E+00  0.00000000E+00
  0.00000000E+00  0.00000000E+00  0.00000000E+00
  0.00000000E+00  0.00000000E+00  0.00000000E+00
  0.00000000E+00  0.00000000E+00  0.00000000E+00
  0.00000000E+00  0.00000000E+00  0.00000000E+00
  0.00000000E+00  0.00000000E+00  0.00000000E+00
  0.00000000E+00  0.00000000E+00  0.00000000E+00
  0.00000000E+00  0.00000000E+00  0.00000000E+00
  0.00000000E+00  0.00000000E+00  0.00000000E+00
  0.00000000E+00  0.00000000E+00  0.00000000E+00
  0.00000000E+00  0.00000000E+00  0.00000000E+00
  0.00000000E+00  0.00000000E+00  0.00000000E+00
  0.00000000E+00  0.00000000E+00  0.00000000E+00
  0.00000000E+00  0.00000000E+00  0.00000000E+00
  0.00000000E+00  0.00000000E+00  0.00000000E+00
  0.00000000E+00  0.00000000E+00  0.00000000E+00
  0.00000000E+00  0.00000000E+00  0.00000000E+00
  0.00000000E+00  0.00000000E+00  0.00000000E+00
  0.00000000E+00  0.00000000E+00  0.00000000E+00
  0.00000000E+00  0.00000000E+00  0.00000000E+00
  0.00000000E+00  0.00000000E+00  0.00000000E+00
  0.00000000E+00  0.00000000E+00  0.00000000E+00
  0.00000000E+00  0.00000000E+00  0.00000000E+00
  0.00000000E+00  0.00000000E+00  0.00000000E+00
  0.00000000E+00  0.00000000E+00  0.00000000E+00
  0.00000000E+00  0.00000000E+00  0.00000000E+00
  0.00000000E+00  0.00000000E+00  0.00000000E+00
  0.00000000E+00  0.00000000E+00  0.00000000E+00
  0.00000000E+00  0.00000000E+00  0.00000000E+00
  0.00000000E+00  0.00000000E+00  0.00000000E+00
  0.00000000E+00  0.00000000E+00  0.00000000E+00
  0.00000000E+00  0.00000000E+00  0.00000000E+00
  0.00000000E+00  0.00000000E+00  0.00000000E+00
  0.00000000E+00  0.00000000E+00  0.00000000E+00
  0.00000000E+00  0.00000000E+00  0.00000000E+00
  0.00000000E+00  0.00000000E+00  0.00000000E+00
  0.00000000E+00  0.00000000E+00  0.00000000E+00
  0.00000000E+00  0.00000000E+00  0.00000000E+00
  0.00000000E+00  0.00000000E+00  0.00000000E+00
  0.00000000E+00  0.00000000E+00  0.00000000E+00
  0.00000000E+00  0.00000000E+00  0.00000000E+00
  0.00000000E+00  0.00000000E+00  0.00000000E+00
  0.00000000E+00  0.00000000E+00  0.00000000E+00
  0.00000000E+00  0.00000000E+00  0.00000000E+00
  0.00000000E+00  0.00000000E+00  0.00000000E+00
  0.00000000E+00  0.00000000E+00  0.00000000E+00
  0.00000000E+00  0.00000000E+00  0.00000000E+00
  0.00000000E+00  0.00000000E+00  0.00000000E+00
  0.00000000E+00  0.00000000E+00  0.00000000E+00
  0.00000000E+00  0.00000000E+00  0.00000000E+00
  0.00000000E+00  0.00000000E+00  0.00000000E+00
  0.00000000E+00  0.00000000E+00  0.00000000E+00
  0.00000000E+00  0.00000000E+00  0.00000000E+00
  0.00000000E+00  0.00000000E+00  0.00000000E+00
  0.00000000E+00  0.00000000E+00  0.00000000E+00
  0.00000000E+00  0.00000000E+00  0.00000000E+00
  0.00000000E+00  0.00000000E+00  0.00000000E+00
  0.00000000E+00  0.00000000E+00  0.00000000E+00
  0.00000000E+00  0.00000000E+00  0.00000000E+00
  0.00000000E+00  0.00000000E+00  0.00000000E+00
  0.00000000E+00  0.00000000E+00  0.00000000E+00
  0.00000000E+00  0.00000000E+00  0.00000000E+00
  0.00000000E+00  0.00000000E+00  0.00000000E+00
  0.00000000E+00  0.00000000E+00  0.00000000E+00
  0.00000000E+00  0.00000000E+00  0.00000000E+00
  0.00000000E+00  0.00000000E+00  0.00000000E+00
  0.00000000E+00  0.00000000E+00  0.00000000E+00
  0.00000000E+00  0.00000000E+00  0.00000000E+00
  0.00000000E+00  0.00000000E+00  0.00000000E+00
  0.00000000E+00  0.00000000E+00  0.00000000E+00
  0.00000000E+00  0.00000000E+00  0.00000000E+00
  0.00000000E+00  0.00000000E+00  0.00000000E+00
  0.00000000E+00  0.00000000E+00  0.00000000E+00
  0.00000000E+00  0.00000000E+00  0.00000000E+00
  0.00000000E+00  0.00000000E+00  0.00000000E+00
  0.00000000E+00  0.00000000E+00  0.00000000E+00
  0.00000000E+00  0.00000000E+00  0.00000000E+00
  0.00000000E+00  0.00000000E+00  0.00000000E+00
  0.00000000E+00  0.00000000E+00  0.00000000E+00
  0.00000000E+00  0.00000000E+00  0.00000000E+00
  0.00000000E+00  0.00000000E+00  0.00000000E+00
  0.00000000E+00  0.00000000E+00  0.00000000E+00
  0.00000000E+00  0.00000000E+00  0.00000000E+00
  0.00000000E+00  0.00000000E+00  0.00000000E+00
  0.00000000E+00  0.00000000E+00  0.00000000E+00
  0.00000000E+00  0.00000000E+00  0.00000000E+00
  0.00000000E+00  0.00000000E+00  0.00000000E+00
  0.00000000E+00  0.00000000E+00  0.00000000E+00
  0.00000000E+00  0.00000000E+00  0.00000000E+00
  0.00000000E+00  0.00000000E+00  0.00000000E+00
  0.00000000E+00  0.00000000E+00  0.00000000E+00
