3                                       
   1.00000000000000     
     9.8399999999999999    0.0000000000000000    0.0000000000000000
     0.0000000000000000   17.0216999999999992    0.0000000000000000
     0.0000000000000000    0.0000000000000000   24.6584000000000003
   H    C    O 
   176    24    60
Selective dynamics
Direct
  0.2615022678871595  0.3897648311037670  0.3413608711177307   T   T   T
  0.1654908701168018  0.4514140435005968  0.3130793522287818   T   T   T
  0.0839569586654078  0.0045425873588903  0.6385505696738820   T   T   T
  0.0650437348947467  0.0770823023737313  0.6744102278926289   T   T   T
  0.6965144737256330  0.5531652288505351  0.5029281496963239   T   T   T
  0.8549223526799625  0.5421121043646919  0.5353516834892481   T   T   T
  0.5618774702932559  0.2661841074598880  0.2963983908611423   T   T   T
  0.6177796949992049  0.3584622340231466  0.3061627381106293   T   T   T
  0.6963947211254022  0.8341975800562356  0.2750089019801959   T   T   T
  0.5639839701634729  0.7959049070076559  0.2934422818520819   T   T   T
  0.2089855361222771 -0.0616831792265027  0.7519202374882329   T   T   T
  0.0933403692028582 -0.0070591153973030  0.7362328370523378   T   T   T
 -0.0530537110783437  0.5075438636291615  0.6041032725290542   T   T   T
  0.0232361477171611  0.5900911418385246  0.6004886417844387   T   T   T
  0.3593030738218794  0.8016147898724221  0.4613775412125686   T   T   T
  0.3453298127146506  0.8646161561064121  0.5148678150995810   T   T   T
  0.6636621731333666  0.8190742436587910  0.4756806291927791   T   T   T
  0.6444294803561320  0.8561610673246082  0.4099757685678455   T   T   T
  0.5731754372134276  0.6262450528687006  0.5777336375936357   T   T   T
  0.6798908758243550  0.6213972956631876  0.6237803923057471   T   T   T
  0.9298716980484396  0.5177776454685898  0.3280837072466091   T   T   T
 -0.0490277251137846  0.5139361819331429  0.2646714712358863   T   T   T
  0.3317595288623479  0.6225495296089963  0.3241813226500487   T   T   T
  0.4673275436633748  0.6107341127480657  0.3602097500899256   T   T   T
 -0.1098538662062241  0.3503309544820292  0.7135292552513089   T   T   T
 -0.1126734789438866  0.2853211205524717  0.6640006881185634   T   T   T
  0.5437693844843342  0.7402188332971156  0.4434516457161902   T   T   T
  0.4099326833283538  0.7157065940280349  0.4022243420093770   T   T   T
  0.8556886707331223  0.2388110473566172  0.3952948355772801   T   T   T
  0.7117906600619331  0.2789711172456770  0.3661097716415448   T   T   T
  0.0097960671233085  0.3557658810410192  0.5629078623027564   T   T   T
 -0.0667488273534724  0.3307372796190740  0.5043843987182817   T   T   T
  0.1408652360108376  0.6588851484337510  0.3580860883100867   T   T   T
  0.0989470745383873  0.5941957978899850  0.3143717943904178   T   T   T
  0.2369699131343110  0.6463450747095735  0.6274339470528592   T   T   T
  0.2369757548096137  0.5808173320365646  0.5813438373824028   T   T   T
  0.8077346108735753  0.1215324510325014  0.5998656003110536   T   T   T
  0.8819574217614646  0.0480137027267973  0.6232702466274770   T   T   T
  0.4642401704333589  0.9527947578145241  0.5691607612889485   T   T   T
  0.5300637138205992  0.8708527967295314  0.5563041515869385   T   T   T
  0.7998191057963848  0.5317623289499362  0.3985335872659461   T   T   T
  0.7712772690392264  0.6126536030288880  0.3623367921965003   T   T   T
  0.4841980407778345  0.5252370968332718  0.4954263131371170   T   T   T
  0.4877731648954075  0.6129679556892815  0.4732410371460627   T   T   T
  0.4632563183754537  0.0883962351004593  0.6057985727720204   T   T   T
  0.6125079287526135  0.0482943183730533  0.6007726607560253   T   T   T
  0.3241742313563534  0.9734409860336551  0.3997084182974636   T   T   T
  0.3006966657464346  0.8875573051695885  0.4246172060872574   T   T   T
  0.0542758709777910  0.1771577507659012  0.4083789089399102   T   T   T
 -0.0010986224637468  0.1680376598268083  0.3483881163910683   T   T   T
  0.6849693967003083  0.0673405600392908  0.4707468703654913   T   T   T
  0.5838209238322252  0.0637235188003399  0.5178045537513840   T   T   T
  0.9012509708856594  0.6888440040184530  0.3900606505995571   T   T   T
  0.7637035852193815  0.7289103946331642  0.3961002472568099   T   T   T
  0.2314008254430776  0.0599767953211687  0.7845546772833367   T   T   T
  0.2043300351794368  0.1324838569761408  0.8184629326527931   T   T   T
 -0.0963085531832679  0.8189746536834097  0.2557278192512315   T   T   T
 -0.1328442136103043  0.7682468429920281  0.3089642593992886   T   T   T
  0.6707747969445370  0.2444390751598350  0.4550700214889060   T   T   T
  0.5791250946616993  0.1707282070864259  0.4772741006066962   T   T   T
  0.8444589251702426  0.0519991136405999  0.5343718470924446   T   T   T
  0.8515422171570708 -0.0123238417906349  0.4837604964193389   T   T   T
  0.4448759721713140  0.2564630450451418  0.4625733947776574   T   T   T
  0.3195364923752793  0.2825612319264420  0.4192293460695325   T   T   T
  0.3624150758150506  0.1333965144843405  0.3537058341458825   T   T   T
  0.3881300005842519  0.1218656157173615  0.2902150830866404   T   T   T
  0.8353355418573537  0.8706134638592166  0.4398355442680674   T   T   T
 -0.0441581790574919  0.9298700046548151  0.4127236811346083   T   T   T
  0.4180567854305410  0.4500487826998764  0.6040948450069190   T   T   T
  0.3219443588989330  0.4509419449023965  0.5550511304862531   T   T   T
  0.4382802379309950  0.6672897682428137  0.6402961153045790   T   T   T
  0.3586742436851493  0.7394411583735251  0.6677348989594866   T   T   T
  0.6644603383836696  0.7792563558616407  0.5717759541406096   T   T   T
  0.7732809187207036  0.8392174731756984  0.5509488687016294   T   T   T
  0.1662523573459747  0.4744841884150713  0.3949762640894954   T   T   T
  0.0299937823908534  0.4530289980275030  0.4279674661126777   T   T   T
  0.0748495496080486  0.9062818502813971  0.5787640895768886   T   T   T
  0.2462476656828426  0.9298206136815664  0.5774421550019103   T   T   T
  0.6398984570980129  0.4436293719485655  0.5782830883300650   T   T   T
  0.5716058170809133  0.3704998276747190  0.6053211763077072   T   T   T
  0.8422647747531949  0.4389614970169556  0.4662563568078983   T   T   T
  0.8429360824546861  0.3628757523916552  0.4221278480015611   T   T   T
  0.1271162727093323  0.1434307031080869  0.4862196686769088   T   T   T
  0.0327719312191494  0.0716034945313520  0.4682679500881387   T   T   T
  0.2080252949738625  0.8916745318784174  0.6665147929031942   T   T   T
  0.3668571717632949  0.9038928184585717  0.6842823804514485   T   T   T
  0.8487207075652561  0.0965770864152337  0.3192975634428233   T   T   T
 -0.0117161010678841  1.0618491994098811  0.3290478881091256   T   T   T
  0.2391321910475299  0.2345348221710816  0.5098322916165831   T   T   T
  0.1043326778418550  0.2419862031574838  0.5454298513348004   T   T   T
  0.0578962374074479  0.5855936952414603  0.4329827815100643   T   T   T
  0.0684445737047441  0.6718818262853083  0.4612781397727140   T   T   T
  0.0804329760268914  0.2208765469769334  0.7030565793029151   T   T   T
  0.1864587057669815  0.1573244610639558  0.7303146481647854   T   T   T
  0.5934928825211669  0.4902287131842514  0.3356045434752879   T   T   T
  0.4472701851869969  0.4700540896760051  0.3163649820999822   T   T   T
 -0.0121839508602692  0.9157586709515582  0.3439452052538480   T   T   T
  0.1408038087781624  0.9461054756822892  0.3642073759352417   T   T   T
  0.0307856488323919  0.3910448636361640  0.6407941296869762   T   T   T
  0.1589132610619896  0.4297048207032060  0.6129861795639623   T   T   T
  0.6297636768648289  0.1061463122902442  0.3533101984404055   T   T   T
  0.6472164037259148  1.0174236567420512  0.3639732828429443   T   T   T
  0.7169048419415704  0.2439975520676825  0.5966707502131741   T   T   T
  0.8652092363576750  0.2523343063357623  0.5755610382742485   T   T   T
  0.2658187249604021  0.4540858220920816  0.4635479583475500   T   T   T
  0.3755834650616311  0.3841697069569898  0.4750135674872162   T   T   T
  0.2569677619161356  0.0993692782995362  0.4304924315910134   T   T   T
  0.4264772236204518  0.0756794698345547  0.4271131880742215   T   T   T
  0.1551330243263751  0.2646750585469963  0.3520368089359435   T   T   T
  0.3125575051667695  0.2543601750732389  0.3273411528388803   T   T   T
  0.2902218375332092  0.1757156258142713  0.5867876051382812   T   T   T
  0.2884712086112522  0.1884251735248024  0.6476028504506642   T   T   T
  0.5649794107462036  0.8931586227422317  0.3275794105106876   T   T   T
  0.4797634814848989  0.9173103032628341  0.3761806709269956   T   T   T
  0.5641253980038008  0.2658488952581105  0.5450224423051697   T   T   T
  0.4700443538660695  0.2433708620947422  0.5973760390838319   T   T   T
  0.1406177173112039  0.6862898270437563  0.5445856203075652   T   T   T
  0.1629974649268238  0.7643662567545978  0.5064697226534971   T   T   T
 -0.0110399862222216  0.7988668497394361  0.5503993886340645   T   T   T
 -0.0446802433744414  0.8730124183844661  0.5145689551131130   T   T   T
  0.0330000000000000  0.6965400000000000  0.1246600000000000   F   F   F
  0.9426099999999999  0.7583000000000000  0.1720100000000000   F   F   F
  0.9379000000000000  0.7840500000000000  0.1010400000000000   F   F   F
  0.2008000000000000  0.7999300000000000  0.1099700000000000   F   F   F
  0.1808400000000000  0.7720000000000000  0.1798200000000000   F   F   F
  0.0241200000000000  0.9025400000000000  0.1877200000000000   F   F   F
  0.0568600000000000  0.9206400000000000  0.1187600000000000   F   F   F
  0.3053600000000000  0.9325900000000000  0.1389900000000000   F   F   F
  0.2759900000000000  0.9060600000000000  0.2090800000000000   F   F   F
  0.1234900000000000  0.0233400000000000  0.2173200000000000   F   F   F
  0.1503900000000000  0.0492600000000000  0.1449100000000000   F   F   F
  0.3028700000000000  0.1254400000000000  0.2118900000000000   F   F   F
  0.3978100000000000  0.0668100000000000  0.1651100000000000   F   F   F
  0.3840700000000000  0.0318500000000000  0.2297400000000000   F   F   F
  0.5613800000000000  0.8648600000000000  0.0706400000000000   F   F   F
  0.5322300000000000  0.9097499999999999  0.1339500000000000   F   F   F
  0.4901500000000000  0.9584500000000000  0.0741600000000000   F   F   F
  0.7457200000000000  0.9596500000000000  0.0493200000000000   F   F   F
  0.7792500000000000  0.9177300000000000  0.1141100000000000   F   F   F
  0.6351599999999999  0.0363200000000000  0.1556300000000000   F   F   F
  0.6501600000000000  0.0805300000000000  0.0876500000000000   F   F   F
  0.8955300000000000  0.0739500000000000  0.0942600000000000   F   F   F
  0.8840500000000000  0.0240900000000000  0.1619500000000000   F   F   F
  0.7609500000000000  0.1498800000000000  0.1971400000000000   F   F   F
  0.7849699999999999  0.1905300000000000  0.1319700000000000   F   F   F
  0.9535400000000001  0.2394400000000000  0.1981100000000000   F   F   F
  0.0396300000000000  0.1877300000000000  0.1449100000000000   F   F   F
  0.0083900000000000  0.1428600000000000  0.2112300000000000   F   F   F
  0.1106700000000000  0.4423100000000000  0.1469600000000000   F   F   F
  0.0910700000000000  0.5168900000000000  0.1990000000000000   F   F   F
  0.0848900000000000  0.5386800000000000  0.1295700000000000   F   F   F
  0.3280300000000000  0.5001500000000000  0.1206500000000000   F   F   F
  0.3336000000000000  0.4833200000000000  0.1925700000000000   F   F   F
  0.2633200000000000  0.6294400000000000  0.2035500000000000   F   F   F
  0.2633000000000000  0.6401300000000000  0.1308000000000000   F   F   F
  0.5109900000000001  0.6001100000000000  0.1308700000000000   F   F   F
  0.5028800000000000  0.5994100000000000  0.2042400000000000   F   F   F
  0.4537700000000000  0.7427500000000000  0.2048800000000000   F   F   F
  0.4492700000000000  0.7492100000000000  0.1318600000000000   F   F   F
  0.6625200000000000  0.7916400000000000  0.1692900000000000   F   F   F
  0.6913400000000000  0.7092900000000000  0.1262900000000000   F   F   F
  0.6934100000000000  0.6929400000000000  0.1964500000000000   F   F   F
  0.3705800000000000  0.1536500000000000  0.0805500000000000   F   F   F
  0.2924400000000000  0.2196500000000000  0.1307900000000000   F   F   F
  0.3370000000000000  0.2536500000000000  0.0603000000000000   F   F   F
  0.5733300000000000  0.2521100000000000  0.0780900000000000   F   F   F
  0.5583600000000000  0.1996100000000000  0.1403900000000000   F   F   F
  0.4597500000000000  0.3118400000000000  0.1825800000000000   F   F   F
  0.4452000000000000  0.3629600000000000  0.1162800000000000   F   F   F
  0.7114900000000000  0.3447400000000000  0.1092900000000000   F   F   F
  0.7091100000000000  0.3204400000000000  0.1790100000000000   F   F   F
  0.5878700000000000  0.4604400000000000  0.1980500000000000   F   F   F
  0.5938700000000000  0.4719400000000000  0.1277100000000000   F   F   F
  0.7812200000000000  0.5405000000000000  0.1792300000000000   F   F   F
  0.8431800000000000  0.4784500000000000  0.1258500000000000   F   F   F
  0.8528100000000000  0.4479300000000000  0.1959100000000000   F   F   F
  0.0041900000000000  0.7571800000000000  0.1333600000000000   F   F   F
  0.1302700000000000  0.8036799999999999  0.1435100000000000   F   F   F
  0.1027100000000000  0.8931500000000000  0.1556300000000000   F   F   F
  0.2280700000000000  0.9358000000000000  0.1729700000000000   F   F   F
  0.1955600000000000  0.0213800000000000  0.1819900000000000   F   F   F
  0.3248400000000000  0.0649000000000000  0.1981700000000000   F   F   F
  0.5636600000000000  0.9195300000000000  0.0922200000000000   F   F   F
  0.7039700000000000  0.9572800000000000  0.0911100000000000   F   F   F
  0.6982699999999999  0.0393100000000000  0.1171500000000000   F   F   F
  0.8376300000000000  0.0691400000000000  0.1333200000000000   F   F   F
  0.8298700000000000  0.1500000000000000  0.1606200000000000   F   F   F
  0.9659300000000000  0.1810300000000000  0.1786200000000000   F   F   F
  0.1319200000000000  0.5021000000000000  0.1586900000000000   F   F   F
  0.2834400000000000  0.5194200000000000  0.1583500000000000   F   F   F
  0.3107700000000000  0.6086800000000000  0.1651900000000000   F   F   F
  0.4613300000000000  0.6251100000000001  0.1667200000000000   F   F   F
  0.4925300000000000  0.7147700000000000  0.1669800000000000   F   F   F
  0.6437900000000000  0.7274600000000000  0.1650900000000000   F   F   F
  0.3655200000000000  0.2150100000000000  0.0953800000000000   F   F   F
  0.5098700000000000  0.2420900000000000  0.1143000000000000   F   F   F
  0.5047700000000001  0.3202600000000000  0.1418600000000000   F   F   F
  0.6496499999999999  0.3551300000000000  0.1481500000000000   F   F   F
  0.6481500000000000  0.4443100000000000  0.1619700000000000   F   F   F
  0.7896000000000000  0.4797800000000000  0.1654100000000000   F   F   F
  0.2522675294235485  0.4522013879886330  0.3397255515895504   T   T   T
  0.0209787091430211  0.0270010452366087  0.6679098834137848   T   T   T
  0.7900942200107108  0.5215602650761937  0.5022574310864405   T   T   T
  0.6486298318441469  0.3005501423153989  0.3012518259127320   T   T   T
  0.5899958791511918  0.8428493149334308  0.2695256248928485   T   T   T
  0.1454444508956543 -0.0249368357201123  0.7685707337999066   T   T   T
  0.9236186364684594  0.5668132007820363  0.5990753429795224   T   T   T
  0.2888497997820318  0.8328136319071149  0.4854249841998651   T   T   T
  0.6910972585962828  0.8114365393584793  0.4356221195831840   T   T   T
  0.6049867971026821  0.6571504874535038  0.6114909081395006   T   T   T
  0.0046916107623487  0.5161795364208627  0.2991274595119390   T   T   T
  0.4181017568470906  0.6549734634160660  0.3423836215369875   T   T   T
 -0.0516679301307958  0.3224496325899811  0.6838134567686450   T   T   T
  0.4388375496124826  0.7273580287312954  0.4423080559649195   T   T   T
  0.7693952345129522  0.2750887520382154  0.4040928598021843   T   T   T
 -0.0250410672606235  0.3092167720833187  0.5390923026975303   T   T   T
  0.1617453860545222  0.6446163278811295  0.3198155547731836   T   T   T
  0.1770659087270951  0.6246898427148030  0.5955746891417415   T   T   T
  0.7982332489285916  0.0626399404502778  0.5978227233162879   T   T   T
  0.4378568614134353  0.8962689276200547  0.5660006084149333   T   T   T
  0.7687095295451370  0.5496353945828595  0.3608369737228515   T   T   T
  0.5245215999741299  0.5788903561558543  0.5048193667909840   T   T   T
  0.5177868347463560  0.0506467755831597  0.5793379109501406   T   T   T
  0.2984725285308402  0.9175305661439951  0.3869541542914368   T   T   T
  0.0209894775048266  0.2122618651460106  0.3777457117502874   T   T   T
  0.5825422204152756  0.0757339581931681  0.4745075050288306   T   T   T
  0.8153772937566434  0.6999176118847515  0.3674540556883384   T   T   T
  0.2737614436273003  0.1153767481172759  0.7904774352932483   T   T   T
 -0.1269317145654918  0.8240808452652113  0.2942537493192486   T   T   T
  0.5964671368689648  0.2294715528248663  0.4839387775672807   T   T   T
  0.8590502218936422  0.0451206477026312  0.4905931362730623   T   T   T
  0.3451954061018326  0.2849536248740857  0.4614907454058568   T   T   T
  0.3983907101512763  0.1638647212190489  0.3199112349953028   T   T   T
 -0.0807033082529758  0.9033386444902431  0.4473023994495536   T   T   T
  0.3179943222654859  0.4667189183490085  0.5941785292976217   T   T   T
  0.3565305664579428  0.6803084479671607  0.6672810909358768   T   T   T
  0.6737657518371717  0.8225572044284956  0.5439062992923175   T   T   T
  0.1174546809428315  0.4887505882339353  0.4311901956163973   T   T   T
  0.1550552568048754  0.9291145173531026  0.5988646568993971   T   T   T
  0.5865710136503696  0.4315326878606831  0.6126136327202517   T   T   T
 -0.0986230186202878  0.3993814813409099  0.4462427470325749   T   T   T
  0.1078170499703460  0.1056668333624825  0.4542887207412789   T   T   T
  0.2748204050842632  0.8790686090954811  0.6986962091273695   T   T   T
 -0.0555207674957818  0.1077318328702669  0.3088954890713356   T   T   T
  0.1851300860117718  0.2026362226052661  0.5373968724204267   T   T   T
  0.0446758110767335  0.6445509266956981  0.4235903626228512   T   T   T
  0.1500603556060612  0.1786598378762895  0.6948782763499811   T   T   T
  0.5449274707335041  0.4529922195228713  0.3064289295276028   T   T   T
  0.0381420014136751  0.9644513073204174  0.3577206071443958   T   T   T
  0.0553532835365978  0.4229636702648286  0.6103615756405312   T   T   T
  0.7067054881547993  0.0663301825253150  0.3553129196544866   T   T   T
  0.8116522378859383  0.2266256442440088  0.6089434224432474   T   T   T
  0.3552038927180824  0.4403541809526614  0.4846145228275859   T   T   T
  0.3362305998385668  0.0694547804742642  0.4027359683447516   T   T   T
  0.2511419204749678  0.2931692264082300  0.3487477271143212   T   T   T
  0.3570597710504478  0.1694214094129494  0.6187327043151504   T   T   T
  0.5797039323386824  0.9193741740905416  0.3661856013537644   T   T   T
  0.5450860929665661  0.2784384053706622  0.5865444039157677   T   T   T
  0.0861187934666531  0.7277152886230248  0.5199992446032085   T   T   T
 -0.0588647660344197  0.8563191051892043  0.5525842648519604   T   T   T
 
 -0.12120800E-01 -0.32264750E-02  0.93508808E-02
 -0.70854194E-02  0.10788627E-01 -0.30781368E-02
 -0.49090853E-02 -0.17998323E-02  0.14229206E-01
 -0.85134425E-03  0.86132624E-02 -0.13317879E-01
 -0.19958493E-03 -0.15857545E-01  0.63248729E-02
 -0.83026592E-02 -0.30727159E-02 -0.91885653E-02
 -0.28376038E-02  0.99534508E-02  0.74870849E-03
 -0.74896191E-02  0.20330949E-02 -0.68487010E-02
  0.11103571E-01 -0.44725602E-02  0.87058354E-02
 -0.68640804E-02  0.42791086E-02 -0.11500980E-01
  0.16506093E-01 -0.21703772E-01  0.66308594E-02
  0.18582673E-03  0.10240549E-01  0.44251126E-02
 -0.11838100E-01 -0.11745024E-01 -0.79293332E-02
 -0.15403216E-01 -0.59909909E-02 -0.10230325E-01
 -0.15325439E-01 -0.58565480E-02 -0.45304012E-02
  0.16023149E-03  0.60618245E-02 -0.11657598E-01
 -0.10457957E-01  0.11463789E-03 -0.22904240E-02
  0.23929333E-02 -0.10627156E-01  0.87244925E-02
  0.58750673E-02  0.14918916E-01  0.36805545E-02
  0.17054950E-02 -0.10697797E-01 -0.10608720E-02
 -0.23951329E-01 -0.63358570E-02 -0.16464193E-01
 -0.40645240E-02  0.12711422E-01  0.17911689E-01
  0.93959692E-03  0.27358543E-01  0.73978967E-03
 -0.10753773E-01  0.23724510E-01 -0.12777612E-01
 -0.60327325E-02 -0.24293133E-02 -0.16071885E-01
 -0.87146672E-02 -0.10315674E-01  0.19714149E-02
  0.17730533E-01  0.63909387E-02  0.88884804E-02
  0.29194463E-02  0.15688677E-01 -0.11383287E-01
 -0.19958213E-02  0.83688127E-02 -0.13803286E-02
  0.38821274E-02  0.88122721E-02 -0.11364571E-02
 -0.35156239E-02  0.23171150E-01 -0.10066073E-01
 -0.19082326E-02 -0.11960256E-02  0.14628916E-02
  0.32886605E-02 -0.37941484E-02 -0.48624033E-02
 -0.30500553E-02  0.14450686E-01  0.18089435E-01
 -0.17584928E-01 -0.66742996E-02 -0.12176165E-01
  0.52892843E-03  0.37621485E-02  0.11701664E-01
  0.10325142E-01 -0.13407572E-01 -0.22498567E-01
  0.12205609E-01 -0.10040664E-01 -0.92445283E-02
  0.58515448E-02 -0.11874485E-01  0.74012017E-02
  0.19112399E-03 -0.17540575E-01  0.50492607E-02
  0.50284539E-02  0.22549815E-01 -0.40083872E-02
  0.12971878E-01  0.82984003E-03  0.28756653E-01
 -0.30659580E-01  0.19924591E-01  0.40258715E-02
 -0.18575018E-01 -0.80950481E-03 -0.14976941E-01
 -0.30508600E-02 -0.10056394E-01 -0.16919951E-01
 -0.29213977E-02 -0.42494353E-02  0.19924997E-02
  0.40876328E-02  0.22453237E-01  0.27496409E-02
 -0.61575021E-02 -0.37753517E-02  0.18518825E-01
 -0.22631041E-02  0.78612909E-02  0.19474677E-01
 -0.98547428E-02 -0.14820633E-01  0.13834058E-03
 -0.12543348E-01 -0.20202337E-01  0.11295677E-01
 -0.13350560E-02  0.15305184E-01  0.82183655E-02
  0.87730187E-02 -0.33490565E-02  0.28058332E-02
 -0.22735244E-01  0.13755590E-01 -0.32755937E-01
  0.69489027E-02  0.12287756E-02 -0.50735075E-02
  0.56142142E-02 -0.11583169E-02 -0.10926933E-01
  0.21190229E-02 -0.80894427E-03  0.13881910E-01
  0.40843619E-02 -0.14672575E-01  0.10318575E-02
 -0.73478272E-02  0.69118482E-02 -0.80704243E-02
  0.96049761E-02 -0.12269213E-01  0.68895769E-02
  0.10318226E-01 -0.19221122E-01 -0.12019143E-02
  0.23262682E-02  0.14093197E-01  0.13227823E-01
 -0.70556044E-02 -0.80834304E-02 -0.13384431E-01
  0.58395940E-03  0.33307612E-01 -0.13315538E-01
  0.16565938E-02 -0.10464684E-01 -0.21236621E-02
  0.20142157E-01 -0.86668123E-02 -0.35316539E-02
 -0.91072446E-02 -0.42263008E-02  0.21401099E-01
  0.12178641E-01  0.15247685E-01  0.63087473E-02
 -0.35692049E-02  0.55748403E-02 -0.95681106E-02
  0.77187501E-02  0.65538929E-02  0.31832845E-02
 -0.42520504E-02  0.18578713E-02 -0.64781551E-02
 -0.10609463E-02  0.36540540E-02  0.66414913E-03
 -0.71992885E-02  0.39343757E-02  0.11332897E-02
  0.34404290E-05 -0.74653899E-02 -0.53664196E-02
 -0.10523910E-01 -0.75942763E-02 -0.89575111E-02
  0.61013453E-03  0.13057624E-01 -0.92712984E-02
  0.10989212E-01  0.11639284E-01  0.36559870E-02
  0.21808032E-03 -0.11407819E-01  0.65501511E-02
  0.13113179E-01  0.73302052E-02 -0.44427908E-03
 -0.84761308E-02 -0.14355808E-01  0.24619675E-02
  0.88082593E-02 -0.14858100E-01  0.23937045E-01
 -0.85335522E-02 -0.37469190E-02  0.63104961E-02
  0.45548832E-02  0.27465636E-02  0.26691763E-01
  0.15682560E-01 -0.16875518E-02 -0.14895163E-01
 -0.18020599E-01 -0.18733125E-01 -0.72128765E-02
 -0.13734022E-01 -0.10142544E-01  0.27061582E-02
  0.97961327E-02 -0.63816148E-02 -0.11803009E-01
  0.19290038E-01 -0.61037983E-02 -0.48310867E-03
 -0.84897330E-02 -0.92361631E-04 -0.80068976E-03
  0.27273346E-03 -0.43799676E-02  0.82244564E-02
  0.12457049E-01 -0.18118238E-02 -0.68400528E-03
  0.50578225E-03 -0.11129239E-01  0.27182576E-01
 -0.40674779E-02  0.45281610E-03 -0.27724072E-02
 -0.13983333E-01 -0.92703038E-02  0.18903681E-01
 -0.98290726E-02  0.12199162E-01  0.33227631E-02
 -0.23718853E-02 -0.14246333E-01 -0.10357944E-01
 -0.50207462E-02 -0.16505333E-01  0.10007816E-01
 -0.25968317E-01  0.58414205E-02  0.68008235E-02
  0.43281226E-02 -0.89789641E-02  0.82765117E-02
 -0.20983796E-02  0.12171086E-01  0.12655547E-01
  0.23169637E-01 -0.87787936E-03 -0.17511011E-02
  0.10225847E-01  0.15752501E-01 -0.31443654E-03
 -0.61308931E-02 -0.64553416E-02  0.65486530E-02
  0.18399625E-02 -0.17982474E-01  0.10948272E-01
 -0.95827252E-02  0.10451449E-01 -0.25912070E-01
  0.79121063E-02 -0.66197630E-02  0.16575092E-01
 -0.12206802E-02 -0.11690823E-01 -0.16192234E-01
  0.22933730E-02 -0.93402654E-03 -0.22542511E-01
 -0.93363278E-02  0.10084021E-01  0.16074209E-01
  0.90327013E-02 -0.40312522E-02 -0.18384387E-01
 -0.10065968E-01  0.93787039E-02 -0.15112982E-01
  0.22334767E-01 -0.47007788E-02  0.42293251E-02
  0.92263893E-02 -0.16858875E-02 -0.39047025E-02
  0.10895714E-01 -0.33883927E-02  0.18024170E-01
  0.68869503E-02  0.75298435E-02 -0.33159722E-02
 -0.55541402E-02 -0.34883248E-02  0.84551581E-02
  0.69537729E-03  0.25132973E-02  0.95608671E-02
  0.12955030E-01 -0.19915277E-01  0.16331915E-02
  0.13999477E-01 -0.10945162E-01  0.75531225E-02
  0.10292069E-01  0.19767756E-02 -0.20556956E-01
  0.00000000E+00  0.00000000E+00  0.00000000E+00
  0.00000000E+00  0.00000000E+00  0.00000000E+00
  0.00000000E+00  0.00000000E+00  0.00000000E+00
  0.00000000E+00  0.00000000E+00  0.00000000E+00
  0.00000000E+00  0.00000000E+00  0.00000000E+00
  0.00000000E+00  0.00000000E+00  0.00000000E+00
  0.00000000E+00  0.00000000E+00  0.00000000E+00
  0.00000000E+00  0.00000000E+00  0.00000000E+00
  0.00000000E+00  0.00000000E+00  0.00000000E+00
  0.00000000E+00  0.00000000E+00  0.00000000E+00
  0.00000000E+00  0.00000000E+00  0.00000000E+00
  0.00000000E+00  0.00000000E+00  0.00000000E+00
  0.00000000E+00  0.00000000E+00  0.00000000E+00
  0.00000000E+00  0.00000000E+00  0.00000000E+00
  0.00000000E+00  0.00000000E+00  0.00000000E+00
  0.00000000E+00  0.00000000E+00  0.00000000E+00
  0.00000000E+00  0.00000000E+00  0.00000000E+00
  0.00000000E+00  0.00000000E+00  0.00000000E+00
  0.00000000E+00  0.00000000E+00  0.00000000E+00
  0.00000000E+00  0.00000000E+00  0.00000000E+00
  0.00000000E+00  0.00000000E+00  0.00000000E+00
  0.00000000E+00  0.00000000E+00  0.00000000E+00
  0.00000000E+00  0.00000000E+00  0.00000000E+00
  0.00000000E+00  0.00000000E+00  0.00000000E+00
  0.00000000E+00  0.00000000E+00  0.00000000E+00
  0.00000000E+00  0.00000000E+00  0.00000000E+00
  0.00000000E+00  0.00000000E+00  0.00000000E+00
  0.00000000E+00  0.00000000E+00  0.00000000E+00
  0.00000000E+00  0.00000000E+00  0.00000000E+00
  0.00000000E+00  0.00000000E+00  0.00000000E+00
  0.00000000E+00  0.00000000E+00  0.00000000E+00
  0.00000000E+00  0.00000000E+00  0.00000000E+00
  0.00000000E+00  0.00000000E+00  0.00000000E+00
  0.00000000E+00  0.00000000E+00  0.00000000E+00
  0.00000000E+00  0.00000000E+00  0.00000000E+00
  0.00000000E+00  0.00000000E+00  0.00000000E+00
  0.00000000E+00  0.00000000E+00  0.00000000E+00
  0.00000000E+00  0.00000000E+00  0.00000000E+00
  0.00000000E+00  0.00000000E+00  0.00000000E+00
  0.00000000E+00  0.00000000E+00  0.00000000E+00
  0.00000000E+00  0.00000000E+00  0.00000000E+00
  0.00000000E+00  0.00000000E+00  0.00000000E+00
  0.00000000E+00  0.00000000E+00  0.00000000E+00
  0.00000000E+00  0.00000000E+00  0.00000000E+00
  0.00000000E+00  0.00000000E+00  0.00000000E+00
  0.00000000E+00  0.00000000E+00  0.00000000E+00
  0.00000000E+00  0.00000000E+00  0.00000000E+00
  0.00000000E+00  0.00000000E+00  0.00000000E+00
  0.00000000E+00  0.00000000E+00  0.00000000E+00
  0.00000000E+00  0.00000000E+00  0.00000000E+00
  0.00000000E+00  0.00000000E+00  0.00000000E+00
  0.00000000E+00  0.00000000E+00  0.00000000E+00
  0.00000000E+00  0.00000000E+00  0.00000000E+00
  0.00000000E+00  0.00000000E+00  0.00000000E+00
  0.00000000E+00  0.00000000E+00  0.00000000E+00
  0.00000000E+00  0.00000000E+00  0.00000000E+00
  0.00000000E+00  0.00000000E+00  0.00000000E+00
  0.00000000E+00  0.00000000E+00  0.00000000E+00
  0.00000000E+00  0.00000000E+00  0.00000000E+00
  0.00000000E+00  0.00000000E+00  0.00000000E+00
  0.00000000E+00  0.00000000E+00  0.00000000E+00
  0.00000000E+00  0.00000000E+00  0.00000000E+00
  0.00000000E+00  0.00000000E+00  0.00000000E+00
  0.00000000E+00  0.00000000E+00  0.00000000E+00
  0.00000000E+00  0.00000000E+00  0.00000000E+00
  0.00000000E+00  0.00000000E+00  0.00000000E+00
  0.00000000E+00  0.00000000E+00  0.00000000E+00
  0.00000000E+00  0.00000000E+00  0.00000000E+00
  0.00000000E+00  0.00000000E+00  0.00000000E+00
  0.00000000E+00  0.00000000E+00  0.00000000E+00
  0.00000000E+00  0.00000000E+00  0.00000000E+00
  0.00000000E+00  0.00000000E+00  0.00000000E+00
  0.00000000E+00  0.00000000E+00  0.00000000E+00
  0.00000000E+00  0.00000000E+00  0.00000000E+00
  0.00000000E+00  0.00000000E+00  0.00000000E+00
  0.00000000E+00  0.00000000E+00  0.00000000E+00
  0.00000000E+00  0.00000000E+00  0.00000000E+00
  0.00000000E+00  0.00000000E+00  0.00000000E+00
  0.00000000E+00  0.00000000E+00  0.00000000E+00
  0.00000000E+00  0.00000000E+00  0.00000000E+00
  0.38463315E-02  0.28942528E-02 -0.13016349E-02
 -0.28085779E-02 -0.19800114E-03  0.28119894E-02
 -0.46830745E-02  0.36158173E-02 -0.74389482E-02
 -0.94119035E-02 -0.33208835E-02  0.23231093E-02
  0.15664340E-02 -0.86077111E-03 -0.88457772E-02
  0.89327654E-02  0.24353779E-04  0.12425616E-02
 -0.75934508E-02 -0.34217893E-03  0.29214502E-02
  0.60757407E-03  0.41864968E-02 -0.36795467E-02
 -0.20282909E-02 -0.12250669E-02  0.82852002E-03
  0.25320243E-02  0.10521050E-02  0.22038695E-02
  0.32726086E-02 -0.75263104E-02  0.13956313E-01
  0.26147491E-02  0.21989896E-02  0.37244187E-02
  0.18222875E-02 -0.25436440E-02 -0.81511878E-03
  0.61623525E-03 -0.40075139E-03 -0.19524464E-02
  0.52162227E-02  0.16027747E-02 -0.11427526E-03
  0.27043648E-02  0.72094692E-02 -0.17873504E-02
 -0.14123605E-02 -0.36157536E-04 -0.16475538E-02
  0.38517075E-02 -0.22160353E-02  0.20798042E-02
  0.12019280E-02  0.27063910E-03  0.42451178E-03
  0.12329099E-02 -0.25806644E-02 -0.10606052E-02
 -0.32198937E-02 -0.63042733E-02  0.58624067E-02
 -0.41357941E-02  0.10740199E-02  0.19215698E-02
 -0.22731116E-02  0.43824998E-02 -0.19542524E-02
  0.10052773E-02 -0.13849387E-02 -0.32628425E-02
 -0.10686617E-03 -0.14828839E-02  0.37790170E-02
  0.19150267E-02  0.38266843E-02  0.46581884E-02
 -0.12283720E-02  0.56549514E-02  0.81674777E-02
 -0.26834705E-02  0.19422798E-02 -0.11328076E-01
  0.35154854E-02 -0.61527750E-02  0.26027591E-02
  0.42787398E-02  0.20543074E-02 -0.23968112E-02
 -0.91371310E-02 -0.70921364E-04  0.25787898E-03
  0.11872255E-02 -0.65181235E-02 -0.14742278E-02
 -0.32351804E-02  0.67434727E-03 -0.10391541E-02
  0.17811115E-02 -0.52737958E-03 -0.46226070E-03
 -0.43268966E-03  0.36247957E-02  0.49666445E-02
  0.21000409E-02  0.15237118E-02 -0.36811102E-02
 -0.43402194E-02  0.22020234E-02  0.42580765E-02
  0.54582768E-02 -0.29083033E-02  0.16100042E-02
  0.25647522E-02  0.68096710E-03  0.50335560E-02
  0.10595893E-02 -0.24510306E-02  0.18663582E-02
  0.32068671E-02 -0.15819680E-02  0.31246518E-02
 -0.26516976E-02 -0.11369250E-01  0.12833732E-02
  0.24647222E-03  0.14790913E-02  0.11500070E-02
  0.66505476E-04  0.25556206E-02 -0.47716515E-02
  0.76712282E-02 -0.16541628E-03 -0.33066690E-02
 -0.15119162E-03 -0.14285525E-02  0.68137733E-02
 -0.31659317E-02  0.27466449E-02 -0.84043514E-03
  0.22465562E-02 -0.34469236E-02  0.43204439E-02
 -0.99891027E-03 -0.12787246E-02 -0.55710280E-02
  0.54215169E-02  0.33235058E-03  0.46739376E-02
 -0.75185304E-03  0.23380781E-02  0.15687386E-02
  0.14387783E-03 -0.59574924E-02 -0.22194135E-02
 -0.21680187E-02  0.59101431E-02 -0.69894724E-02
 -0.61588320E-03  0.56135900E-02  0.20511905E-02
 -0.19402357E-02  0.57566286E-02  0.15231958E-02
  0.41849190E-02 -0.20539707E-02  0.74644576E-02
 -0.25463692E-02  0.40624239E-03  0.26839439E-02
  0.64158776E-02 -0.64792690E-02  0.42679100E-02
 -0.44974880E-03  0.23196783E-03 -0.42425422E-03
  0.72289101E-02  0.53343893E-02  0.23302184E-02
 
           1
   1.00000000000000     
  0.17191303E+01  0.32106127E-02  0.34261045E-02  0.17158120E+01
  0.26027048E+00  0.38957528E+00  0.34174009E+00
  0.16477081E+00  0.45204786E+00  0.31295452E+00
  0.83458068E-01  0.44368498E-02  0.63912762E+00
  0.64957216E-01  0.77588319E-01  0.67387013E+00
  0.69649419E+00  0.55223362E+00  0.50318465E+00
  0.85407859E+00  0.54193159E+00  0.53497905E+00
  0.56158910E+00  0.26676886E+00  0.29642875E+00
  0.61701855E+00  0.35858168E+00  0.30588499E+00
  0.69752313E+00  0.83393482E+00  0.27536196E+00
  0.56328640E+00  0.79615630E+00  0.29297587E+00
  0.21066298E+00  0.93704176E+00  0.75218915E+00
  0.93359254E-01  0.99354250E+00  0.73641229E+00
  0.94574323E+00  0.50685386E+00  0.60378171E+00
  0.21670780E-01  0.58973918E+00  0.60007376E+00
  0.35774561E+00  0.80127073E+00  0.46119381E+00
  0.34534610E+00  0.86497228E+00  0.51439505E+00
  0.66259937E+00  0.81908098E+00  0.47558774E+00
  0.64467266E+00  0.85553674E+00  0.41032958E+00
  0.57377250E+00  0.62712152E+00  0.57788290E+00
  0.68006420E+00  0.62076882E+00  0.62373737E+00
  0.92743762E+00  0.51740542E+00  0.32741602E+00
  0.95055921E+00  0.51468296E+00  0.26539786E+00
  0.33185502E+00  0.62415680E+00  0.32421132E+00
  0.46623468E+00  0.61212789E+00  0.35969157E+00
  0.88953305E+00  0.35018824E+00  0.71287747E+00
  0.88644088E+00  0.28471509E+00  0.66408064E+00
  0.54557127E+00  0.74059429E+00  0.44381211E+00
  0.41022938E+00  0.71662828E+00  0.40176270E+00
  0.85548584E+00  0.23930270E+00  0.39523886E+00
  0.71218519E+00  0.27948883E+00  0.36606368E+00
  0.94387883E-02  0.35712715E+00  0.56249964E+00
  0.93305725E+00  0.33066701E+00  0.50444373E+00
  0.14119945E+00  0.65866225E+00  0.35788890E+00
  0.98637110E-01  0.59504475E+00  0.31510540E+00
  0.23518283E+00  0.64595297E+00  0.62694015E+00
  0.23702951E+00  0.58103835E+00  0.58181839E+00
  0.80878391E+00  0.12074478E+00  0.59895319E+00
  0.88319783E+00  0.47423828E-01  0.62289534E+00
  0.46483484E+00  0.95209715E+00  0.56946091E+00
  0.53008314E+00  0.86982231E+00  0.55650892E+00
  0.80033013E+00  0.53308710E+00  0.39837103E+00
  0.77259555E+00  0.61270235E+00  0.36350299E+00
  0.48108223E+00  0.52640764E+00  0.49558958E+00
  0.48588546E+00  0.61292040E+00  0.47263366E+00
  0.46294627E+00  0.87805437E-01  0.60511240E+00
  0.61221104E+00  0.48044670E-01  0.60085346E+00
  0.32458964E+00  0.97476008E+00  0.39981993E+00
  0.30007090E+00  0.88733551E+00  0.42536822E+00
  0.54045881E-01  0.17761959E+00  0.40916869E+00
  0.99789988E+00  0.16716697E+00  0.34839373E+00
  0.68369467E+00  0.66153702E-01  0.47120496E+00
  0.58368525E+00  0.64622676E-01  0.51813784E+00
  0.90214254E+00  0.68864725E+00  0.39017444E+00
  0.76139309E+00  0.72971852E+00  0.39477186E+00
  0.23210701E+00  0.60048984E-01  0.78434893E+00
  0.20490059E+00  0.13241581E+00  0.81801980E+00
  0.90390679E+00  0.81892713E+00  0.25629079E+00
  0.86757086E+00  0.76738485E+00  0.30900611E+00
  0.67002807E+00  0.24484514E+00  0.45474273E+00
  0.58010121E+00  0.17000741E+00  0.47755350E+00
  0.84550753E+00  0.50869901E-01  0.53432310E+00
  0.85177863E+00  0.98850411E+00  0.48429694E+00
  0.44415894E+00  0.25598816E+00  0.46203060E+00
  0.31959584E+00  0.28451801E+00  0.41868935E+00
  0.36258343E+00  0.13278173E+00  0.35361971E+00
  0.39017697E+00  0.12135645E+00  0.29007186E+00
  0.83441001E+00  0.87036517E+00  0.44070345E+00
  0.95707949E+00  0.93076578E+00  0.41297953E+00
  0.41769406E+00  0.45037630E+00  0.60370682E+00
  0.32272878E+00  0.45132698E+00  0.55518023E+00
  0.43784812E+00  0.66739892E+00  0.64003340E+00
  0.35856642E+00  0.73965583E+00  0.66776183E+00
  0.66372870E+00  0.77948749E+00  0.57182191E+00
  0.77328127E+00  0.83877889E+00  0.55073124E+00
  0.16518285E+00  0.47403804E+00  0.39461300E+00
  0.30055788E-01  0.45379611E+00  0.42759148E+00
  0.75966339E-01  0.90696564E+00  0.57891235E+00
  0.24626983E+00  0.92915042E+00  0.57770779E+00
  0.64123110E+00  0.44406001E+00  0.57826507E+00
  0.57074442E+00  0.36965644E+00  0.60542102E+00
  0.84315992E+00  0.43808861E+00  0.46722710E+00
  0.84206885E+00  0.36265563E+00  0.42238376E+00
  0.12757917E+00  0.14359206E+00  0.48730213E+00
  0.34365687E-01  0.71504353E-01  0.46766389E+00
  0.20619393E+00  0.89057399E+00  0.66622228E+00
  0.36546144E+00  0.90329696E+00  0.68439213E+00
  0.84971625E+00  0.96202176E-01  0.31881890E+00
  0.99024427E+00  0.61490610E-01  0.32902830E+00
  0.23826941E+00  0.23452940E+00  0.50979982E+00
  0.10436039E+00  0.24172889E+00  0.54576339E+00
  0.59162198E-01  0.58548725E+00  0.43295504E+00
  0.68495974E-01  0.67122800E+00  0.46238051E+00
  0.80019614E-01  0.22090315E+00  0.70294415E+00
  0.18503764E+00  0.15677984E+00  0.73108127E+00
  0.59249399E+00  0.49094540E+00  0.33573930E+00
  0.44702914E+00  0.46921714E+00  0.31594492E+00
  0.98730581E+00  0.91478901E+00  0.34435106E+00
  0.13816475E+00  0.94644865E+00  0.36448318E+00
  0.31225499E-01  0.39051736E+00  0.64112978E+00
  0.15870001E+00  0.43041985E+00  0.61349941E+00
  0.63211831E+00  0.10609474E+00  0.35323918E+00
  0.64825562E+00  0.18349093E-01  0.36396053E+00
  0.71628178E+00  0.24361831E+00  0.59693633E+00
  0.86539622E+00  0.25127786E+00  0.57600504E+00
  0.26484487E+00  0.45469983E+00  0.46249712E+00
  0.37638754E+00  0.38378081E+00  0.47568576E+00
  0.25684371E+00  0.98682460E-01  0.42983577E+00
  0.42671029E+00  0.75624597E-01  0.42619900E+00
  0.15418421E+00  0.26526748E+00  0.35268868E+00
  0.31347546E+00  0.25412334E+00  0.32659559E+00
  0.28919887E+00  0.17626661E+00  0.58617471E+00
  0.29074100E+00  0.18814901E+00  0.64777437E+00
  0.56591705E+00  0.89305958E+00  0.32742106E+00
  0.48087077E+00  0.91711124E+00  0.37691163E+00
  0.56482529E+00  0.26629126E+00  0.54488797E+00
  0.46947991E+00  0.24316593E+00  0.59771893E+00
  0.14068839E+00  0.68643748E+00  0.54497335E+00
  0.16431403E+00  0.76319626E+00  0.50653596E+00
  0.99038272E+00  0.79822384E+00  0.55070570E+00
  0.95636570E+00  0.87312855E+00  0.51373529E+00
  0.33000000E-01  0.69654000E+00  0.12466000E+00
  0.94261000E+00  0.75830000E+00  0.17201000E+00
  0.93790000E+00  0.78405000E+00  0.10104000E+00
  0.20080000E+00  0.79993000E+00  0.10997000E+00
  0.18084000E+00  0.77200000E+00  0.17982000E+00
  0.24120000E-01  0.90254000E+00  0.18772000E+00
  0.56860000E-01  0.92064000E+00  0.11876000E+00
  0.30536000E+00  0.93259000E+00  0.13899000E+00
  0.27599000E+00  0.90606000E+00  0.20908000E+00
  0.12349000E+00  0.23340000E-01  0.21732000E+00
  0.15039000E+00  0.49260000E-01  0.14491000E+00
  0.30287000E+00  0.12544000E+00  0.21189000E+00
  0.39781000E+00  0.66810000E-01  0.16511000E+00
  0.38407000E+00  0.31850000E-01  0.22974000E+00
  0.56138000E+00  0.86486000E+00  0.70640000E-01
  0.53223000E+00  0.90975000E+00  0.13395000E+00
  0.49015000E+00  0.95845000E+00  0.74160000E-01
  0.74572000E+00  0.95965000E+00  0.49320000E-01
  0.77925000E+00  0.91773000E+00  0.11411000E+00
  0.63516000E+00  0.36320000E-01  0.15563000E+00
  0.65016000E+00  0.80530000E-01  0.87650000E-01
  0.89553000E+00  0.73950000E-01  0.94260000E-01
  0.88405000E+00  0.24090000E-01  0.16195000E+00
  0.76095000E+00  0.14988000E+00  0.19714000E+00
  0.78497000E+00  0.19053000E+00  0.13197000E+00
  0.95354000E+00  0.23944000E+00  0.19811000E+00
  0.39630000E-01  0.18773000E+00  0.14491000E+00
  0.83900000E-02  0.14286000E+00  0.21123000E+00
  0.11067000E+00  0.44231000E+00  0.14696000E+00
  0.91070000E-01  0.51689000E+00  0.19900000E+00
  0.84890000E-01  0.53868000E+00  0.12957000E+00
  0.32803000E+00  0.50015000E+00  0.12065000E+00
  0.33360000E+00  0.48332000E+00  0.19257000E+00
  0.26332000E+00  0.62944000E+00  0.20355000E+00
  0.26330000E+00  0.64013000E+00  0.13080000E+00
  0.51099000E+00  0.60011000E+00  0.13087000E+00
  0.50288000E+00  0.59941000E+00  0.20424000E+00
  0.45377000E+00  0.74275000E+00  0.20488000E+00
  0.44927000E+00  0.74921000E+00  0.13186000E+00
  0.66252000E+00  0.79164000E+00  0.16929000E+00
  0.69134000E+00  0.70929000E+00  0.12629000E+00
  0.69341000E+00  0.69294000E+00  0.19645000E+00
  0.37058000E+00  0.15365000E+00  0.80550000E-01
  0.29244000E+00  0.21965000E+00  0.13079000E+00
  0.33700000E+00  0.25365000E+00  0.60300000E-01
  0.57333000E+00  0.25211000E+00  0.78090000E-01
  0.55836000E+00  0.19961000E+00  0.14039000E+00
  0.45975000E+00  0.31184000E+00  0.18258000E+00
  0.44520000E+00  0.36296000E+00  0.11628000E+00
  0.71149000E+00  0.34474000E+00  0.10929000E+00
  0.70911000E+00  0.32044000E+00  0.17901000E+00
  0.58787000E+00  0.46044000E+00  0.19805000E+00
  0.59387000E+00  0.47194000E+00  0.12771000E+00
  0.78122000E+00  0.54050000E+00  0.17923000E+00
  0.84318000E+00  0.47845000E+00  0.12585000E+00
  0.85281000E+00  0.44793000E+00  0.19591000E+00
  0.41900000E-02  0.75718000E+00  0.13336000E+00
  0.13027000E+00  0.80368000E+00  0.14351000E+00
  0.10271000E+00  0.89315000E+00  0.15563000E+00
  0.22807000E+00  0.93580000E+00  0.17297000E+00
  0.19556000E+00  0.21380000E-01  0.18199000E+00
  0.32484000E+00  0.64900000E-01  0.19817000E+00
  0.56366000E+00  0.91953000E+00  0.92220000E-01
  0.70397000E+00  0.95728000E+00  0.91110000E-01
  0.69827000E+00  0.39310000E-01  0.11715000E+00
  0.83763000E+00  0.69140000E-01  0.13332000E+00
  0.82987000E+00  0.15000000E+00  0.16062000E+00
  0.96593000E+00  0.18103000E+00  0.17862000E+00
  0.13192000E+00  0.50210000E+00  0.15869000E+00
  0.28344000E+00  0.51942000E+00  0.15835000E+00
  0.31077000E+00  0.60868000E+00  0.16519000E+00
  0.46133000E+00  0.62511000E+00  0.16672000E+00
  0.49253000E+00  0.71477000E+00  0.16698000E+00
  0.64379000E+00  0.72746000E+00  0.16509000E+00
  0.36552000E+00  0.21501000E+00  0.95380000E-01
  0.50987000E+00  0.24209000E+00  0.11430000E+00
  0.50477000E+00  0.32026000E+00  0.14186000E+00
  0.64965000E+00  0.35513000E+00  0.14815000E+00
  0.64815000E+00  0.44431000E+00  0.16197000E+00
  0.78960000E+00  0.47978000E+00  0.16541000E+00
  0.25265842E+00  0.45237142E+00  0.33967276E+00
  0.20693285E-01  0.26989413E-01  0.66802392E+00
  0.78961830E+00  0.52177269E+00  0.50195575E+00
  0.64767334E+00  0.30035505E+00  0.30134604E+00
  0.59015507E+00  0.84279875E+00  0.26916689E+00
  0.14635225E+00  0.97506460E+00  0.76862112E+00
  0.92284694E+00  0.56679310E+00  0.59919382E+00
  0.28891155E+00  0.83305958E+00  0.48527576E+00
  0.69089113E+00  0.81136457E+00  0.43565572E+00
  0.60524412E+00  0.65721230E+00  0.61158028E+00
  0.50241929E-02  0.51573738E+00  0.29969345E+00
  0.41836748E+00  0.65510265E+00  0.34253466E+00
  0.94851726E+00  0.32230020E+00  0.68378040E+00
  0.43890018E+00  0.72733449E+00  0.44222888E+00
  0.76992534E+00  0.27518291E+00  0.40408823E+00
  0.97523377E+00  0.30964032E+00  0.53901982E+00
  0.16160185E+00  0.64461420E+00  0.31974874E+00
  0.17745734E+00  0.62455965E+00  0.59565903E+00
  0.79835540E+00  0.62655840E-01  0.59783994E+00
  0.43798216E+00  0.89611732E+00  0.56595760E+00
  0.76838230E+00  0.54926503E+00  0.36107472E+00
  0.52410130E+00  0.57895345E+00  0.50489729E+00
  0.51755583E+00  0.50904241E-01  0.57925866E+00
  0.29857469E+00  0.91744920E+00  0.38682183E+00
  0.20978617E-01  0.21217475E+00  0.37789897E+00
  0.58273684E+00  0.75958770E-01  0.47469641E+00
  0.81525246E+00  0.70024983E+00  0.36778528E+00
  0.27348873E+00  0.11549085E+00  0.79001804E+00
  0.87342555E+00  0.82371938E+00  0.29435930E+00
  0.59690197E+00  0.22959224E+00  0.48384158E+00
  0.85812165E+00  0.45116481E-01  0.49060359E+00
  0.34531606E+00  0.28457069E+00  0.46143096E+00
  0.39806193E+00  0.16390434E+00  0.31986909E+00
  0.91947770E+00  0.90330766E+00  0.44728365E+00
  0.31795035E+00  0.46693187E+00  0.59437995E+00
  0.35674399E+00  0.68039796E+00  0.66713181E+00
  0.67332467E+00  0.82268657E+00  0.54407898E+00
  0.11800938E+00  0.48857973E+00  0.43125549E+00
  0.15531590E+00  0.92915452E+00  0.59906879E+00
  0.58667870E+00  0.43138869E+00  0.61268932E+00
  0.90170288E+00  0.39928854E+00  0.44636946E+00
  0.10754757E+00  0.10499891E+00  0.45434077E+00
  0.27484545E+00  0.87915550E+00  0.69874285E+00
  0.94448599E+00  0.10788197E+00  0.30870198E+00
  0.18590968E+00  0.20262650E+00  0.53726277E+00
  0.44660446E-01  0.64446700E+00  0.42386669E+00
  0.14973861E+00  0.17882120E+00  0.69484419E+00
  0.54515578E+00  0.45278972E+00  0.30660414E+00
  0.38040486E-01  0.96437618E+00  0.35749468E+00
  0.55904251E-01  0.42298320E+00  0.61055112E+00
  0.70662908E+00  0.66467541E-01  0.35537654E+00
  0.81166686E+00  0.22627565E+00  0.60885342E+00
  0.35498357E+00  0.44070139E+00  0.48433107E+00
  0.33616801E+00  0.69784571E-01  0.40281915E+00
  0.25094474E+00  0.29350742E+00  0.34880950E+00
  0.35748507E+00  0.16930074E+00  0.61903542E+00
  0.57944515E+00  0.91939804E+00  0.36629445E+00
  0.54573811E+00  0.27805776E+00  0.58671749E+00
  0.86073087E-01  0.72772892E+00  0.51998204E+00
  0.94186988E+00  0.85663249E+00  0.55267876E+00
  0.00000000E+00  0.00000000E+00  0.00000000E+00
  0.00000000E+00  0.00000000E+00  0.00000000E+00
  0.00000000E+00  0.00000000E+00  0.00000000E+00
  0.00000000E+00  0.00000000E+00  0.00000000E+00
  0.00000000E+00  0.00000000E+00  0.00000000E+00
  0.00000000E+00  0.00000000E+00  0.00000000E+00
  0.00000000E+00  0.00000000E+00  0.00000000E+00
  0.00000000E+00  0.00000000E+00  0.00000000E+00
  0.00000000E+00  0.00000000E+00  0.00000000E+00
  0.00000000E+00  0.00000000E+00  0.00000000E+00
  0.00000000E+00  0.00000000E+00  0.00000000E+00
  0.00000000E+00  0.00000000E+00  0.00000000E+00
  0.00000000E+00  0.00000000E+00  0.00000000E+00
  0.00000000E+00  0.00000000E+00  0.00000000E+00
  0.00000000E+00  0.00000000E+00  0.00000000E+00
  0.00000000E+00  0.00000000E+00  0.00000000E+00
  0.00000000E+00  0.00000000E+00  0.00000000E+00
  0.00000000E+00  0.00000000E+00  0.00000000E+00
  0.00000000E+00  0.00000000E+00  0.00000000E+00
  0.00000000E+00  0.00000000E+00  0.00000000E+00
  0.00000000E+00  0.00000000E+00  0.00000000E+00
  0.00000000E+00  0.00000000E+00  0.00000000E+00
  0.00000000E+00  0.00000000E+00  0.00000000E+00
  0.00000000E+00  0.00000000E+00  0.00000000E+00
  0.00000000E+00  0.00000000E+00  0.00000000E+00
  0.00000000E+00  0.00000000E+00  0.00000000E+00
  0.00000000E+00  0.00000000E+00  0.00000000E+00
  0.00000000E+00  0.00000000E+00  0.00000000E+00
  0.00000000E+00  0.00000000E+00  0.00000000E+00
  0.00000000E+00  0.00000000E+00  0.00000000E+00
  0.00000000E+00  0.00000000E+00  0.00000000E+00
  0.00000000E+00  0.00000000E+00  0.00000000E+00
  0.00000000E+00  0.00000000E+00  0.00000000E+00
  0.00000000E+00  0.00000000E+00  0.00000000E+00
  0.00000000E+00  0.00000000E+00  0.00000000E+00
  0.00000000E+00  0.00000000E+00  0.00000000E+00
  0.00000000E+00  0.00000000E+00  0.00000000E+00
  0.00000000E+00  0.00000000E+00  0.00000000E+00
  0.00000000E+00  0.00000000E+00  0.00000000E+00
  0.00000000E+00  0.00000000E+00  0.00000000E+00
  0.00000000E+00  0.00000000E+00  0.00000000E+00
  0.00000000E+00  0.00000000E+00  0.00000000E+00
  0.00000000E+00  0.00000000E+00  0.00000000E+00
  0.00000000E+00  0.00000000E+00  0.00000000E+00
  0.00000000E+00  0.00000000E+00  0.00000000E+00
  0.00000000E+00  0.00000000E+00  0.00000000E+00
  0.00000000E+00  0.00000000E+00  0.00000000E+00
  0.00000000E+00  0.00000000E+00  0.00000000E+00
  0.00000000E+00  0.00000000E+00  0.00000000E+00
  0.00000000E+00  0.00000000E+00  0.00000000E+00
  0.00000000E+00  0.00000000E+00  0.00000000E+00
  0.00000000E+00  0.00000000E+00  0.00000000E+00
  0.00000000E+00  0.00000000E+00  0.00000000E+00
  0.00000000E+00  0.00000000E+00  0.00000000E+00
  0.00000000E+00  0.00000000E+00  0.00000000E+00
  0.00000000E+00  0.00000000E+00  0.00000000E+00
  0.00000000E+00  0.00000000E+00  0.00000000E+00
  0.00000000E+00  0.00000000E+00  0.00000000E+00
  0.00000000E+00  0.00000000E+00  0.00000000E+00
  0.00000000E+00  0.00000000E+00  0.00000000E+00
  0.00000000E+00  0.00000000E+00  0.00000000E+00
  0.00000000E+00  0.00000000E+00  0.00000000E+00
  0.00000000E+00  0.00000000E+00  0.00000000E+00
  0.00000000E+00  0.00000000E+00  0.00000000E+00
  0.00000000E+00  0.00000000E+00  0.00000000E+00
  0.00000000E+00  0.00000000E+00  0.00000000E+00
  0.00000000E+00  0.00000000E+00  0.00000000E+00
  0.00000000E+00  0.00000000E+00  0.00000000E+00
  0.00000000E+00  0.00000000E+00  0.00000000E+00
  0.00000000E+00  0.00000000E+00  0.00000000E+00
  0.00000000E+00  0.00000000E+00  0.00000000E+00
  0.00000000E+00  0.00000000E+00  0.00000000E+00
  0.00000000E+00  0.00000000E+00  0.00000000E+00
  0.00000000E+00  0.00000000E+00  0.00000000E+00
  0.00000000E+00  0.00000000E+00  0.00000000E+00
  0.00000000E+00  0.00000000E+00  0.00000000E+00
  0.00000000E+00  0.00000000E+00  0.00000000E+00
  0.00000000E+00  0.00000000E+00  0.00000000E+00
  0.00000000E+00  0.00000000E+00  0.00000000E+00
  0.00000000E+00  0.00000000E+00  0.00000000E+00
  0.00000000E+00  0.00000000E+00  0.00000000E+00
  0.00000000E+00  0.00000000E+00  0.00000000E+00
  0.00000000E+00  0.00000000E+00  0.00000000E+00
  0.00000000E+00  0.00000000E+00  0.00000000E+00
  0.00000000E+00  0.00000000E+00  0.00000000E+00
  0.00000000E+00  0.00000000E+00  0.00000000E+00
  0.00000000E+00  0.00000000E+00  0.00000000E+00
  0.00000000E+00  0.00000000E+00  0.00000000E+00
  0.00000000E+00  0.00000000E+00  0.00000000E+00
  0.00000000E+00  0.00000000E+00  0.00000000E+00
  0.00000000E+00  0.00000000E+00  0.00000000E+00
  0.00000000E+00  0.00000000E+00  0.00000000E+00
  0.00000000E+00  0.00000000E+00  0.00000000E+00
  0.00000000E+00  0.00000000E+00  0.00000000E+00
  0.00000000E+00  0.00000000E+00  0.00000000E+00
  0.00000000E+00  0.00000000E+00  0.00000000E+00
  0.00000000E+00  0.00000000E+00  0.00000000E+00
  0.00000000E+00  0.00000000E+00  0.00000000E+00
  0.00000000E+00  0.00000000E+00  0.00000000E+00
  0.00000000E+00  0.00000000E+00  0.00000000E+00
  0.00000000E+00  0.00000000E+00  0.00000000E+00
  0.00000000E+00  0.00000000E+00  0.00000000E+00
  0.00000000E+00  0.00000000E+00  0.00000000E+00
  0.00000000E+00  0.00000000E+00  0.00000000E+00
  0.00000000E+00  0.00000000E+00  0.00000000E+00
  0.00000000E+00  0.00000000E+00  0.00000000E+00
  0.00000000E+00  0.00000000E+00  0.00000000E+00
  0.00000000E+00  0.00000000E+00  0.00000000E+00
  0.00000000E+00  0.00000000E+00  0.00000000E+00
  0.00000000E+00  0.00000000E+00  0.00000000E+00
  0.00000000E+00  0.00000000E+00  0.00000000E+00
  0.00000000E+00  0.00000000E+00  0.00000000E+00
  0.00000000E+00  0.00000000E+00  0.00000000E+00
  0.00000000E+00  0.00000000E+00  0.00000000E+00
  0.00000000E+00  0.00000000E+00  0.00000000E+00
  0.00000000E+00  0.00000000E+00  0.00000000E+00
  0.00000000E+00  0.00000000E+00  0.00000000E+00
  0.00000000E+00  0.00000000E+00  0.00000000E+00
  0.00000000E+00  0.00000000E+00  0.00000000E+00
  0.00000000E+00  0.00000000E+00  0.00000000E+00
  0.00000000E+00  0.00000000E+00  0.00000000E+00
  0.00000000E+00  0.00000000E+00  0.00000000E+00
  0.00000000E+00  0.00000000E+00  0.00000000E+00
  0.00000000E+00  0.00000000E+00  0.00000000E+00
  0.00000000E+00  0.00000000E+00  0.00000000E+00
  0.00000000E+00  0.00000000E+00  0.00000000E+00
  0.00000000E+00  0.00000000E+00  0.00000000E+00
  0.00000000E+00  0.00000000E+00  0.00000000E+00
  0.00000000E+00  0.00000000E+00  0.00000000E+00
  0.00000000E+00  0.00000000E+00  0.00000000E+00
  0.00000000E+00  0.00000000E+00  0.00000000E+00
  0.00000000E+00  0.00000000E+00  0.00000000E+00
  0.00000000E+00  0.00000000E+00  0.00000000E+00
  0.00000000E+00  0.00000000E+00  0.00000000E+00
  0.00000000E+00  0.00000000E+00  0.00000000E+00
  0.00000000E+00  0.00000000E+00  0.00000000E+00
  0.00000000E+00  0.00000000E+00  0.00000000E+00
  0.00000000E+00  0.00000000E+00  0.00000000E+00
  0.00000000E+00  0.00000000E+00  0.00000000E+00
  0.00000000E+00  0.00000000E+00  0.00000000E+00
  0.00000000E+00  0.00000000E+00  0.00000000E+00
  0.00000000E+00  0.00000000E+00  0.00000000E+00
  0.00000000E+00  0.00000000E+00  0.00000000E+00
  0.00000000E+00  0.00000000E+00  0.00000000E+00
  0.00000000E+00  0.00000000E+00  0.00000000E+00
  0.00000000E+00  0.00000000E+00  0.00000000E+00
  0.00000000E+00  0.00000000E+00  0.00000000E+00
  0.00000000E+00  0.00000000E+00  0.00000000E+00
  0.00000000E+00  0.00000000E+00  0.00000000E+00
  0.00000000E+00  0.00000000E+00  0.00000000E+00
  0.00000000E+00  0.00000000E+00  0.00000000E+00
  0.00000000E+00  0.00000000E+00  0.00000000E+00
  0.00000000E+00  0.00000000E+00  0.00000000E+00
  0.00000000E+00  0.00000000E+00  0.00000000E+00
  0.00000000E+00  0.00000000E+00  0.00000000E+00
  0.00000000E+00  0.00000000E+00  0.00000000E+00
  0.00000000E+00  0.00000000E+00  0.00000000E+00
  0.00000000E+00  0.00000000E+00  0.00000000E+00
  0.00000000E+00  0.00000000E+00  0.00000000E+00
  0.00000000E+00  0.00000000E+00  0.00000000E+00
  0.00000000E+00  0.00000000E+00  0.00000000E+00
  0.00000000E+00  0.00000000E+00  0.00000000E+00
  0.00000000E+00  0.00000000E+00  0.00000000E+00
  0.00000000E+00  0.00000000E+00  0.00000000E+00
  0.00000000E+00  0.00000000E+00  0.00000000E+00
  0.00000000E+00  0.00000000E+00  0.00000000E+00
  0.00000000E+00  0.00000000E+00  0.00000000E+00
  0.00000000E+00  0.00000000E+00  0.00000000E+00
  0.00000000E+00  0.00000000E+00  0.00000000E+00
  0.00000000E+00  0.00000000E+00  0.00000000E+00
  0.00000000E+00  0.00000000E+00  0.00000000E+00
  0.00000000E+00  0.00000000E+00  0.00000000E+00
  0.00000000E+00  0.00000000E+00  0.00000000E+00
  0.00000000E+00  0.00000000E+00  0.00000000E+00
  0.00000000E+00  0.00000000E+00  0.00000000E+00
  0.00000000E+00  0.00000000E+00  0.00000000E+00
  0.00000000E+00  0.00000000E+00  0.00000000E+00
  0.00000000E+00  0.00000000E+00  0.00000000E+00
  0.00000000E+00  0.00000000E+00  0.00000000E+00
  0.00000000E+00  0.00000000E+00  0.00000000E+00
  0.00000000E+00  0.00000000E+00  0.00000000E+00
  0.00000000E+00  0.00000000E+00  0.00000000E+00
  0.00000000E+00  0.00000000E+00  0.00000000E+00
  0.00000000E+00  0.00000000E+00  0.00000000E+00
  0.00000000E+00  0.00000000E+00  0.00000000E+00
  0.00000000E+00  0.00000000E+00  0.00000000E+00
  0.00000000E+00  0.00000000E+00  0.00000000E+00
  0.00000000E+00  0.00000000E+00  0.00000000E+00
  0.00000000E+00  0.00000000E+00  0.00000000E+00
  0.00000000E+00  0.00000000E+00  0.00000000E+00
  0.00000000E+00  0.00000000E+00  0.00000000E+00
  0.00000000E+00  0.00000000E+00  0.00000000E+00
  0.00000000E+00  0.00000000E+00  0.00000000E+00
  0.00000000E+00  0.00000000E+00  0.00000000E+00
  0.00000000E+00  0.00000000E+00  0.00000000E+00
  0.00000000E+00  0.00000000E+00  0.00000000E+00
  0.00000000E+00  0.00000000E+00  0.00000000E+00
  0.00000000E+00  0.00000000E+00  0.00000000E+00
  0.00000000E+00  0.00000000E+00  0.00000000E+00
  0.00000000E+00  0.00000000E+00  0.00000000E+00
  0.00000000E+00  0.00000000E+00  0.00000000E+00
  0.00000000E+00  0.00000000E+00  0.00000000E+00
  0.00000000E+00  0.00000000E+00  0.00000000E+00
  0.00000000E+00  0.00000000E+00  0.00000000E+00
  0.00000000E+00  0.00000000E+00  0.00000000E+00
  0.00000000E+00  0.00000000E+00  0.00000000E+00
  0.00000000E+00  0.00000000E+00  0.00000000E+00
  0.00000000E+00  0.00000000E+00  0.00000000E+00
  0.00000000E+00  0.00000000E+00  0.00000000E+00
  0.00000000E+00  0.00000000E+00  0.00000000E+00
  0.00000000E+00  0.00000000E+00  0.00000000E+00
  0.00000000E+00  0.00000000E+00  0.00000000E+00
  0.00000000E+00  0.00000000E+00  0.00000000E+00
  0.00000000E+00  0.00000000E+00  0.00000000E+00
  0.00000000E+00  0.00000000E+00  0.00000000E+00
  0.00000000E+00  0.00000000E+00  0.00000000E+00
  0.00000000E+00  0.00000000E+00  0.00000000E+00
  0.00000000E+00  0.00000000E+00  0.00000000E+00
  0.00000000E+00  0.00000000E+00  0.00000000E+00
  0.00000000E+00  0.00000000E+00  0.00000000E+00
  0.00000000E+00  0.00000000E+00  0.00000000E+00
  0.00000000E+00  0.00000000E+00  0.00000000E+00
  0.00000000E+00  0.00000000E+00  0.00000000E+00
  0.00000000E+00  0.00000000E+00  0.00000000E+00
  0.00000000E+00  0.00000000E+00  0.00000000E+00
  0.00000000E+00  0.00000000E+00  0.00000000E+00
  0.00000000E+00  0.00000000E+00  0.00000000E+00
  0.00000000E+00  0.00000000E+00  0.00000000E+00
  0.00000000E+00  0.00000000E+00  0.00000000E+00
  0.00000000E+00  0.00000000E+00  0.00000000E+00
  0.00000000E+00  0.00000000E+00  0.00000000E+00
  0.00000000E+00  0.00000000E+00  0.00000000E+00
  0.00000000E+00  0.00000000E+00  0.00000000E+00
  0.00000000E+00  0.00000000E+00  0.00000000E+00
  0.00000000E+00  0.00000000E+00  0.00000000E+00
  0.00000000E+00  0.00000000E+00  0.00000000E+00
  0.00000000E+00  0.00000000E+00  0.00000000E+00
  0.00000000E+00  0.00000000E+00  0.00000000E+00
  0.00000000E+00  0.00000000E+00  0.00000000E+00
  0.00000000E+00  0.00000000E+00  0.00000000E+00
  0.00000000E+00  0.00000000E+00  0.00000000E+00
  0.00000000E+00  0.00000000E+00  0.00000000E+00
  0.00000000E+00  0.00000000E+00  0.00000000E+00
  0.00000000E+00  0.00000000E+00  0.00000000E+00
  0.00000000E+00  0.00000000E+00  0.00000000E+00
  0.00000000E+00  0.00000000E+00  0.00000000E+00
  0.00000000E+00  0.00000000E+00  0.00000000E+00
  0.00000000E+00  0.00000000E+00  0.00000000E+00
  0.00000000E+00  0.00000000E+00  0.00000000E+00
  0.00000000E+00  0.00000000E+00  0.00000000E+00
  0.00000000E+00  0.00000000E+00  0.00000000E+00
  0.00000000E+00  0.00000000E+00  0.00000000E+00
  0.00000000E+00  0.00000000E+00  0.00000000E+00
  0.00000000E+00  0.00000000E+00  0.00000000E+00
  0.00000000E+00  0.00000000E+00  0.00000000E+00
  0.00000000E+00  0.00000000E+00  0.00000000E+00
  0.00000000E+00  0.00000000E+00  0.00000000E+00
  0.00000000E+00  0.00000000E+00  0.00000000E+00
  0.00000000E+00  0.00000000E+00  0.00000000E+00
  0.00000000E+00  0.00000000E+00  0.00000000E+00
  0.00000000E+00  0.00000000E+00  0.00000000E+00
  0.00000000E+00  0.00000000E+00  0.00000000E+00
  0.00000000E+00  0.00000000E+00  0.00000000E+00
  0.00000000E+00  0.00000000E+00  0.00000000E+00
  0.00000000E+00  0.00000000E+00  0.00000000E+00
  0.00000000E+00  0.00000000E+00  0.00000000E+00
  0.00000000E+00  0.00000000E+00  0.00000000E+00
  0.00000000E+00  0.00000000E+00  0.00000000E+00
  0.00000000E+00  0.00000000E+00  0.00000000E+00
  0.00000000E+00  0.00000000E+00  0.00000000E+00
  0.00000000E+00  0.00000000E+00  0.00000000E+00
  0.00000000E+00  0.00000000E+00  0.00000000E+00
  0.00000000E+00  0.00000000E+00  0.00000000E+00
  0.00000000E+00  0.00000000E+00  0.00000000E+00
  0.00000000E+00  0.00000000E+00  0.00000000E+00
  0.00000000E+00  0.00000000E+00  0.00000000E+00
  0.00000000E+00  0.00000000E+00  0.00000000E+00
  0.00000000E+00  0.00000000E+00  0.00000000E+00
  0.00000000E+00  0.00000000E+00  0.00000000E+00
  0.00000000E+00  0.00000000E+00  0.00000000E+00
  0.00000000E+00  0.00000000E+00  0.00000000E+00
  0.00000000E+00  0.00000000E+00  0.00000000E+00
  0.00000000E+00  0.00000000E+00  0.00000000E+00
  0.00000000E+00  0.00000000E+00  0.00000000E+00
  0.00000000E+00  0.00000000E+00  0.00000000E+00
  0.00000000E+00  0.00000000E+00  0.00000000E+00
  0.00000000E+00  0.00000000E+00  0.00000000E+00
  0.00000000E+00  0.00000000E+00  0.00000000E+00
  0.00000000E+00  0.00000000E+00  0.00000000E+00
  0.00000000E+00  0.00000000E+00  0.00000000E+00
  0.00000000E+00  0.00000000E+00  0.00000000E+00
  0.00000000E+00  0.00000000E+00  0.00000000E+00
  0.00000000E+00  0.00000000E+00  0.00000000E+00
  0.00000000E+00  0.00000000E+00  0.00000000E+00
  0.00000000E+00  0.00000000E+00  0.00000000E+00
  0.00000000E+00  0.00000000E+00  0.00000000E+00
  0.00000000E+00  0.00000000E+00  0.00000000E+00
  0.00000000E+00  0.00000000E+00  0.00000000E+00
  0.00000000E+00  0.00000000E+00  0.00000000E+00
  0.00000000E+00  0.00000000E+00  0.00000000E+00
  0.00000000E+00  0.00000000E+00  0.00000000E+00
  0.00000000E+00  0.00000000E+00  0.00000000E+00
  0.00000000E+00  0.00000000E+00  0.00000000E+00
  0.00000000E+00  0.00000000E+00  0.00000000E+00
  0.00000000E+00  0.00000000E+00  0.00000000E+00
  0.00000000E+00  0.00000000E+00  0.00000000E+00
  0.00000000E+00  0.00000000E+00  0.00000000E+00
  0.00000000E+00  0.00000000E+00  0.00000000E+00
  0.00000000E+00  0.00000000E+00  0.00000000E+00
  0.00000000E+00  0.00000000E+00  0.00000000E+00
  0.00000000E+00  0.00000000E+00  0.00000000E+00
  0.00000000E+00  0.00000000E+00  0.00000000E+00
  0.00000000E+00  0.00000000E+00  0.00000000E+00
  0.00000000E+00  0.00000000E+00  0.00000000E+00
  0.00000000E+00  0.00000000E+00  0.00000000E+00
  0.00000000E+00  0.00000000E+00  0.00000000E+00
  0.00000000E+00  0.00000000E+00  0.00000000E+00
  0.00000000E+00  0.00000000E+00  0.00000000E+00
  0.00000000E+00  0.00000000E+00  0.00000000E+00
  0.00000000E+00  0.00000000E+00  0.00000000E+00
  0.00000000E+00  0.00000000E+00  0.00000000E+00
  0.00000000E+00  0.00000000E+00  0.00000000E+00
  0.00000000E+00  0.00000000E+00  0.00000000E+00
  0.00000000E+00  0.00000000E+00  0.00000000E+00
  0.00000000E+00  0.00000000E+00  0.00000000E+00
  0.00000000E+00  0.00000000E+00  0.00000000E+00
  0.00000000E+00  0.00000000E+00  0.00000000E+00
  0.00000000E+00  0.00000000E+00  0.00000000E+00
  0.00000000E+00  0.00000000E+00  0.00000000E+00
  0.00000000E+00  0.00000000E+00  0.00000000E+00
  0.00000000E+00  0.00000000E+00  0.00000000E+00
  0.00000000E+00  0.00000000E+00  0.00000000E+00
  0.00000000E+00  0.00000000E+00  0.00000000E+00
  0.00000000E+00  0.00000000E+00  0.00000000E+00
  0.00000000E+00  0.00000000E+00  0.00000000E+00
  0.00000000E+00  0.00000000E+00  0.00000000E+00
  0.00000000E+00  0.00000000E+00  0.00000000E+00
  0.00000000E+00  0.00000000E+00  0.00000000E+00
  0.00000000E+00  0.00000000E+00  0.00000000E+00
  0.00000000E+00  0.00000000E+00  0.00000000E+00
  0.00000000E+00  0.00000000E+00  0.00000000E+00
  0.00000000E+00  0.00000000E+00  0.00000000E+00
  0.00000000E+00  0.00000000E+00  0.00000000E+00
  0.00000000E+00  0.00000000E+00  0.00000000E+00
  0.00000000E+00  0.00000000E+00  0.00000000E+00
  0.00000000E+00  0.00000000E+00  0.00000000E+00
  0.00000000E+00  0.00000000E+00  0.00000000E+00
  0.00000000E+00  0.00000000E+00  0.00000000E+00
  0.00000000E+00  0.00000000E+00  0.00000000E+00
  0.00000000E+00  0.00000000E+00  0.00000000E+00
  0.00000000E+00  0.00000000E+00  0.00000000E+00
  0.00000000E+00  0.00000000E+00  0.00000000E+00
  0.00000000E+00  0.00000000E+00  0.00000000E+00
  0.00000000E+00  0.00000000E+00  0.00000000E+00
  0.00000000E+00  0.00000000E+00  0.00000000E+00
  0.00000000E+00  0.00000000E+00  0.00000000E+00
  0.00000000E+00  0.00000000E+00  0.00000000E+00
  0.00000000E+00  0.00000000E+00  0.00000000E+00
  0.00000000E+00  0.00000000E+00  0.00000000E+00
  0.00000000E+00  0.00000000E+00  0.00000000E+00
  0.00000000E+00  0.00000000E+00  0.00000000E+00
  0.00000000E+00  0.00000000E+00  0.00000000E+00
  0.00000000E+00  0.00000000E+00  0.00000000E+00
  0.00000000E+00  0.00000000E+00  0.00000000E+00
  0.00000000E+00  0.00000000E+00  0.00000000E+00
  0.00000000E+00  0.00000000E+00  0.00000000E+00
  0.00000000E+00  0.00000000E+00  0.00000000E+00
  0.00000000E+00  0.00000000E+00  0.00000000E+00
  0.00000000E+00  0.00000000E+00  0.00000000E+00
  0.00000000E+00  0.00000000E+00  0.00000000E+00
  0.00000000E+00  0.00000000E+00  0.00000000E+00
  0.00000000E+00  0.00000000E+00  0.00000000E+00
  0.00000000E+00  0.00000000E+00  0.00000000E+00
  0.00000000E+00  0.00000000E+00  0.00000000E+00
  0.00000000E+00  0.00000000E+00  0.00000000E+00
  0.00000000E+00  0.00000000E+00  0.00000000E+00
  0.00000000E+00  0.00000000E+00  0.00000000E+00
  0.00000000E+00  0.00000000E+00  0.00000000E+00
  0.00000000E+00  0.00000000E+00  0.00000000E+00
  0.00000000E+00  0.00000000E+00  0.00000000E+00
  0.00000000E+00  0.00000000E+00  0.00000000E+00
  0.00000000E+00  0.00000000E+00  0.00000000E+00
  0.00000000E+00  0.00000000E+00  0.00000000E+00
  0.00000000E+00  0.00000000E+00  0.00000000E+00
  0.00000000E+00  0.00000000E+00  0.00000000E+00
  0.00000000E+00  0.00000000E+00  0.00000000E+00
  0.00000000E+00  0.00000000E+00  0.00000000E+00
  0.00000000E+00  0.00000000E+00  0.00000000E+00
  0.00000000E+00  0.00000000E+00  0.00000000E+00
  0.00000000E+00  0.00000000E+00  0.00000000E+00
  0.00000000E+00  0.00000000E+00  0.00000000E+00
  0.00000000E+00  0.00000000E+00  0.00000000E+00
  0.00000000E+00  0.00000000E+00  0.00000000E+00
  0.00000000E+00  0.00000000E+00  0.00000000E+00
  0.00000000E+00  0.00000000E+00  0.00000000E+00
  0.00000000E+00  0.00000000E+00  0.00000000E+00
  0.00000000E+00  0.00000000E+00  0.00000000E+00
  0.00000000E+00  0.00000000E+00  0.00000000E+00
  0.00000000E+00  0.00000000E+00  0.00000000E+00
  0.00000000E+00  0.00000000E+00  0.00000000E+00
  0.00000000E+00  0.00000000E+00  0.00000000E+00
  0.00000000E+00  0.00000000E+00  0.00000000E+00
  0.00000000E+00  0.00000000E+00  0.00000000E+00
  0.00000000E+00  0.00000000E+00  0.00000000E+00
  0.00000000E+00  0.00000000E+00  0.00000000E+00
  0.00000000E+00  0.00000000E+00  0.00000000E+00
  0.00000000E+00  0.00000000E+00  0.00000000E+00
  0.00000000E+00  0.00000000E+00  0.00000000E+00
  0.00000000E+00  0.00000000E+00  0.00000000E+00
  0.00000000E+00  0.00000000E+00  0.00000000E+00
  0.00000000E+00  0.00000000E+00  0.00000000E+00
  0.00000000E+00  0.00000000E+00  0.00000000E+00
  0.00000000E+00  0.00000000E+00  0.00000000E+00
  0.00000000E+00  0.00000000E+00  0.00000000E+00
  0.00000000E+00  0.00000000E+00  0.00000000E+00
  0.00000000E+00  0.00000000E+00  0.00000000E+00
  0.00000000E+00  0.00000000E+00  0.00000000E+00
  0.00000000E+00  0.00000000E+00  0.00000000E+00
  0.00000000E+00  0.00000000E+00  0.00000000E+00
  0.00000000E+00  0.00000000E+00  0.00000000E+00
  0.00000000E+00  0.00000000E+00  0.00000000E+00
  0.00000000E+00  0.00000000E+00  0.00000000E+00
  0.00000000E+00  0.00000000E+00  0.00000000E+00
  0.00000000E+00  0.00000000E+00  0.00000000E+00
  0.00000000E+00  0.00000000E+00  0.00000000E+00
  0.00000000E+00  0.00000000E+00  0.00000000E+00
  0.00000000E+00  0.00000000E+00  0.00000000E+00
  0.00000000E+00  0.00000000E+00  0.00000000E+00
  0.00000000E+00  0.00000000E+00  0.00000000E+00
  0.00000000E+00  0.00000000E+00  0.00000000E+00
  0.00000000E+00  0.00000000E+00  0.00000000E+00
  0.00000000E+00  0.00000000E+00  0.00000000E+00
  0.00000000E+00  0.00000000E+00  0.00000000E+00
  0.00000000E+00  0.00000000E+00  0.00000000E+00
  0.00000000E+00  0.00000000E+00  0.00000000E+00
  0.00000000E+00  0.00000000E+00  0.00000000E+00
  0.00000000E+00  0.00000000E+00  0.00000000E+00
  0.00000000E+00  0.00000000E+00  0.00000000E+00
  0.00000000E+00  0.00000000E+00  0.00000000E+00
  0.00000000E+00  0.00000000E+00  0.00000000E+00
  0.00000000E+00  0.00000000E+00  0.00000000E+00
  0.00000000E+00  0.00000000E+00  0.00000000E+00
  0.00000000E+00  0.00000000E+00  0.00000000E+00
  0.00000000E+00  0.00000000E+00  0.00000000E+00
  0.00000000E+00  0.00000000E+00  0.00000000E+00
  0.00000000E+00  0.00000000E+00  0.00000000E+00
  0.00000000E+00  0.00000000E+00  0.00000000E+00
  0.00000000E+00  0.00000000E+00  0.00000000E+00
  0.00000000E+00  0.00000000E+00  0.00000000E+00
  0.00000000E+00  0.00000000E+00  0.00000000E+00
  0.00000000E+00  0.00000000E+00  0.00000000E+00
  0.00000000E+00  0.00000000E+00  0.00000000E+00
  0.00000000E+00  0.00000000E+00  0.00000000E+00
  0.00000000E+00  0.00000000E+00  0.00000000E+00
  0.00000000E+00  0.00000000E+00  0.00000000E+00
  0.00000000E+00  0.00000000E+00  0.00000000E+00
  0.00000000E+00  0.00000000E+00  0.00000000E+00
  0.00000000E+00  0.00000000E+00  0.00000000E+00
  0.00000000E+00  0.00000000E+00  0.00000000E+00
  0.00000000E+00  0.00000000E+00  0.00000000E+00
  0.00000000E+00  0.00000000E+00  0.00000000E+00
  0.00000000E+00  0.00000000E+00  0.00000000E+00
  0.00000000E+00  0.00000000E+00  0.00000000E+00
  0.00000000E+00  0.00000000E+00  0.00000000E+00
  0.00000000E+00  0.00000000E+00  0.00000000E+00
  0.00000000E+00  0.00000000E+00  0.00000000E+00
  0.00000000E+00  0.00000000E+00  0.00000000E+00
  0.00000000E+00  0.00000000E+00  0.00000000E+00
  0.00000000E+00  0.00000000E+00  0.00000000E+00
  0.00000000E+00  0.00000000E+00  0.00000000E+00
  0.00000000E+00  0.00000000E+00  0.00000000E+00
  0.00000000E+00  0.00000000E+00  0.00000000E+00
  0.00000000E+00  0.00000000E+00  0.00000000E+00
  0.00000000E+00  0.00000000E+00  0.00000000E+00
  0.00000000E+00  0.00000000E+00  0.00000000E+00
  0.00000000E+00  0.00000000E+00  0.00000000E+00
  0.00000000E+00  0.00000000E+00  0.00000000E+00
  0.00000000E+00  0.00000000E+00  0.00000000E+00
  0.00000000E+00  0.00000000E+00  0.00000000E+00
  0.00000000E+00  0.00000000E+00  0.00000000E+00
  0.00000000E+00  0.00000000E+00  0.00000000E+00
  0.00000000E+00  0.00000000E+00  0.00000000E+00
  0.00000000E+00  0.00000000E+00  0.00000000E+00
  0.00000000E+00  0.00000000E+00  0.00000000E+00
  0.00000000E+00  0.00000000E+00  0.00000000E+00
  0.00000000E+00  0.00000000E+00  0.00000000E+00
  0.00000000E+00  0.00000000E+00  0.00000000E+00
  0.00000000E+00  0.00000000E+00  0.00000000E+00
  0.00000000E+00  0.00000000E+00  0.00000000E+00
  0.00000000E+00  0.00000000E+00  0.00000000E+00
  0.00000000E+00  0.00000000E+00  0.00000000E+00
  0.00000000E+00  0.00000000E+00  0.00000000E+00
  0.00000000E+00  0.00000000E+00  0.00000000E+00
  0.00000000E+00  0.00000000E+00  0.00000000E+00
  0.00000000E+00  0.00000000E+00  0.00000000E+00
  0.00000000E+00  0.00000000E+00  0.00000000E+00
  0.00000000E+00  0.00000000E+00  0.00000000E+00
  0.00000000E+00  0.00000000E+00  0.00000000E+00
  0.00000000E+00  0.00000000E+00  0.00000000E+00
  0.00000000E+00  0.00000000E+00  0.00000000E+00
  0.00000000E+00  0.00000000E+00  0.00000000E+00
  0.00000000E+00  0.00000000E+00  0.00000000E+00
  0.00000000E+00  0.00000000E+00  0.00000000E+00
  0.00000000E+00  0.00000000E+00  0.00000000E+00
  0.00000000E+00  0.00000000E+00  0.00000000E+00
  0.00000000E+00  0.00000000E+00  0.00000000E+00
  0.00000000E+00  0.00000000E+00  0.00000000E+00
  0.00000000E+00  0.00000000E+00  0.00000000E+00
  0.00000000E+00  0.00000000E+00  0.00000000E+00
  0.00000000E+00  0.00000000E+00  0.00000000E+00
  0.00000000E+00  0.00000000E+00  0.00000000E+00
  0.00000000E+00  0.00000000E+00  0.00000000E+00
  0.00000000E+00  0.00000000E+00  0.00000000E+00
  0.00000000E+00  0.00000000E+00  0.00000000E+00
  0.00000000E+00  0.00000000E+00  0.00000000E+00
  0.00000000E+00  0.00000000E+00  0.00000000E+00
  0.00000000E+00  0.00000000E+00  0.00000000E+00
  0.00000000E+00  0.00000000E+00  0.00000000E+00
  0.00000000E+00  0.00000000E+00  0.00000000E+00
  0.00000000E+00  0.00000000E+00  0.00000000E+00
