Converted from CP2K restart: POSCAR
1.0
   9.9130000000000003   0.0000000000000000   0.0000000000000000
   0.0000000000000000   8.5048000000000030   0.0000000000000000
   0.0000000000000000   0.0000000000000000   73.7288999999999959
  O  Si  H  C
  148  24  226  12
Direct
   0.6741885107237762   0.2724568446433502   0.0974149438555240
   0.6834835176069909   0.2363042991495021   0.1649993480164654
   0.9897229719195996   0.7686698405350333   0.0963990267531043
   0.9314460007026381   0.7369275163525180   0.1659139778204633
   0.7282901799382973   0.9904822850839194   0.1160213535956399
   0.7557771418606106   0.9715543125142065   0.1843576007254603
   0.0216388607339213   0.4805325748968772   0.1150051266535483
   0.0110716713858579   0.5130985440703804   0.1886698446536636
   0.6567513506668399   0.6824599939133568   0.1390506952588059
   0.6540139355728565   0.6924712211144282   0.2130911488009287
   0.8777594109885646   0.1463626661223634   0.1416046100655020
   0.8604730318427523   0.1457315699005792   0.2102248299592915
   0.6944476265555568   0.3754752701254344   0.1336936262446222
   0.6544180438753051   0.3573512601164011   0.2101340735865296
   0.9360711124537111   0.8561153146146987   0.1330221901189836
   0.9622590216468936   0.8550467594249748   0.2041728342250635
   0.7747916442502397   0.5634395819980437   0.1092217109734156
   0.7410807314847658   0.5499265698419127   0.1828446552269334
   0.9911350640853880   0.0951003052567603   0.1104556354580678
   0.0044616875277626   0.1021950207645541   0.1806638565825975
   0.6718662573558579   0.1308805432018456   0.0817628993217794
   0.6202131567627748   0.9658174495803347   0.1527729521782771
   0.9849899980165733   0.6223191447512881   0.0812326716759460
   0.9044003251997992   0.4274598614734736   0.1564633286582198
   0.2094141397864695   0.1723030418528532   0.0882182571160366
   0.2282904637041226   0.2092538611635690   0.1655599968781149
   0.4717410375691344   0.7879473054938251   0.0920895313102702
   0.4864428350072388   0.7190609990575688   0.1670529101980684
   0.2253634394381663   0.9702426021288005   0.1188023211611849
   0.2467447231876626   0.9881161369428791   0.1904088090097764
   0.5057526870554334   0.5221292853260786   0.1161804790884231
   0.4933906213103219   0.5114204096718800   0.1923735104254670
   0.1406695809892126   0.6528666652380030   0.1412662493344574
   0.1560883387674218   0.6637014099481172   0.2124643725742045
   0.4068274128605942   0.1454359319139962   0.1384353366219349
   0.3881384676894115   0.1746556551069736   0.2143917838290348
   0.2212276566864843   0.3634104333290078   0.1337334613032944
   0.2212181757680040   0.3801360807143008   0.2039374830866814
   0.4257857210252182   0.8344459611146398   0.1343048865265802
   0.4278572622455085   0.8839977183608330   0.2113809958766773
   0.2579884615268962   0.6165713847278262   0.1092047917037247
   0.2599240978358308   0.6034394399389293   0.1789100052349639
   0.4758417019619124   0.0421272893528202   0.1061752464542230
   0.5028001729459363   0.0880093424788551   0.1837670323503649
   0.1575161156299676   0.0021541092729751   0.0802372461714317
   0.1358666895258929   0.9062662727004556   0.1580857041852113
   0.4528122412235399   0.6210362897510701   0.0801737785263423
   0.4182512698467751   0.4174108860050602   0.1585673933666154
   0.4540417614654632   0.2870334754441031   0.4151491577817649
   0.5904613601019522   0.5460278489118526   0.5372834761187387
   0.7360949228419182   0.8105542177532292   0.5256204491020484
   0.6952745494973418   0.9481128671820968   0.6676272305148657
   0.7098980729602113   0.4760087717599464   0.5989515882161296
   0.9686177139289278   0.1622135949672043   0.6309893063293350
   0.3429139937692865   0.8500589423363951   0.3536626942129604
   0.0192369916949664   0.9460586412726680   0.3776184938078445
   0.1519715741059988   0.2966718895478846   0.7813922051734946
   0.2132079363238919   0.1294454072137907   0.3506302475135643
   0.5902231819111605   0.9928684187114766   0.3697955685169388
   0.5222781964734206   0.9428302499369567   0.5073469582354613
   0.3314972000257430   0.8715112931589898   0.7021919943510097
   0.8966517329076616   0.4484141432711195   0.4971563624132534
   0.1338850062675856   0.4409646681772716   0.7325603539020166
   0.4710701372231166   0.7854007781105081   0.6730444178853160
   0.9235106159744340   0.7066053829074972   0.3940595977823246
   0.7339301037048904   0.1661624626511624   0.4163354758342248
   0.8165250720975559   0.3664391560417932   0.5493726503845365
   0.7232790804964522   0.1181335826104959   0.4994372094033785
   0.4065307297318498   0.2500820375390787   0.4582681506338123
   0.3355426728102672   0.3792418951844652   0.6361472610580930
   0.8388142878250403   0.1303002589819304   0.7322949046687529
   0.3858346959924377   0.7425126820499639   0.5485678353891017
   0.8955717957090120   0.4390215887961413   0.6812082255618130
   0.3580724221204000   0.2319440540318110   0.7465394695140155
   0.8386974923308170   0.4335013450293337   0.4319941405719585
   0.8860729575237708   0.3533684002312141   0.3548573504568353
   0.0227013949805821   0.7857524408715292   0.3414681359084685
   0.6787796301102362   0.6962404602717144   0.3810124628664441
   0.4362675018539209   0.9554291916995796   0.4514726356807291
   0.8474218202710081   0.1782051979256181   0.3239583306644455
   0.6215722459990192   0.3979850587077636   0.5054729867036114
   0.7263889191758222   0.6382971824227459   0.6325392495447121
   0.0078096233746220   0.2667327025723956   0.7062611720285136
   0.6102555033038131   0.3492130662695758   0.7078034907601115
   0.3110924441164879   0.6836354677665808   0.7324708173937406
   0.3272278097561384   0.8779865797222265   0.6460619784514166
   0.2769633468539488   0.0614162249650967   0.2932459765640103
   0.9698219339464271   0.7367874073214924   0.5090296959319306
   0.3678785336206539   0.4524053522909373   0.3289835634067541
   0.4841831423928868   0.0271841558914094   0.6222996400783337
   0.1730100655168731   0.5922990968952477   0.5318905155875797
   0.7144531656917353   0.5608490920853267   0.7363298593679254
   0.2257643503198201   0.3018228292116738   0.5798585183110199
   0.0271260878724675   0.0720078882439799   0.7622615527169835
   0.0704914480628672   0.2998337558820345   0.4187856536103258
   0.2016952855968480   0.1430590659340460   0.6543476485419812
   0.6036896939342911   0.6425457028703858   0.3192929778068465
   0.7308167420722456   0.3708477329648763   0.3003725957568380
   0.9573670497363624   0.5745766207201801   0.7545691252725982
   0.3320634240642495   0.0433735347440851   0.5332170490464335
   0.0904483499697025   0.7854015095808633   0.6048653883447246
   0.4926918642803506   0.0209314328663051   0.5847589776145092
   0.8405945127468408   0.0787508216160111   0.4656699285926744
   0.7024585474770711   0.9517002337611604   0.4406595515960607
   0.0882233564174834   0.0328820042329638   0.3211886735226384
   0.1356636617042717   0.7956610034988427   0.7600432564396693
   0.6825070280561789   0.2808187613404278   0.6719246468619063
   0.7285712067127275   0.9007461069152567   0.5663766416041230
   0.1450768512214450   0.7033347526669234   0.4491028303369720
   0.3151894770087310   0.7967552371622697   0.4210425483045753
   0.0348368883828125   0.8705181240199903   0.4778664527339851
   0.3283104303836850   0.7405522399116694   0.5879861297219410
   0.8191956350673724   0.2098765215203349   0.5826223359986041
   0.9596064987115979   0.3549625583741947   0.4627053027588829
   0.4745429102162672   0.0939399981843134   0.7201543119967049
   0.2739025287295007   0.3338778234842978   0.5163113991313518
   0.0592732354474064   0.0125584696203858   0.5385806332969825
   0.4014048450589438   0.4532342419323077   0.4880315470859450
   0.8727074785421709   0.6744057681389977   0.5840397093844946
   0.3219327665975614   0.5904719250056385   0.3756529789258715
   0.2357839390060453   0.0682311553938677   0.4009181583583674
   0.6009055926470548   0.9819862821727083   0.3292378392720113
   0.5083658695432310   0.6065060327584102   0.4046021497864680
   0.1532959289814936   0.6027031904681956   0.6344183477043809
   0.9402594302471343   0.4748176112021450   0.7894782415546413
   0.1107413249974981   0.0088372750934538   0.6889583579906881
   0.4419677817841116   0.3271190014531629   0.3599871915184285
   0.4857669088551554   0.2509163394863096   0.5522977422399231
   0.8167286166659982   0.1592230097726619   0.3796959944140709
   0.5454712484877087   0.5227595373041414   0.6572651629107116
   0.7520716832054172   0.9525499402021420   0.6307820149417021
   0.1120698821545598   0.4650857928023491   0.3306828021049659
   0.5081951171497626   0.5025420154670590   0.7546839058084188
   0.3153136614941000   0.6406101703331083   0.7835886391000486
   0.8844456152067697   0.8053428431102150   0.6909249253761497
   0.0274307280919271   0.5152254553659250   0.5623476987338848
   0.9248942416236103   0.4416209954482986   0.6446546859063260
   0.1751564380431062   0.1149488687974249   0.4850173445575510
   0.1930714064803978   0.4027698201451839   0.4465037120877838
   0.0440249798262144   0.1271501909631874   0.5982550095975120
   0.9175238455511310   0.2161691877934284   0.5221245611657127
   0.3966740825695413   0.7804913045072581   0.4845908142242321
   0.7391230104054751   0.8331628294327699   0.7216236058865209
   0.7703242094940590   0.6129905323414450   0.3481353133918888
   0.8863984704154584   0.7408180305705195   0.4304743380301817
   0.0736712208887382   0.4788489777284426   0.3850794880358716
   0.4670265165671058   0.2341234023279011   0.3091650839720806
   0.4248481160303916   0.4462373309346905   0.5965461857655483
   0.6299096367194315   0.0943541809929911   0.1020628341593010
   0.6399626249672867   0.0628934487958257   0.1724596823078237
   0.9289049289886308   0.5895365091696996   0.1015368004323260
   0.8899756849708984   0.5571180975704376   0.1736617564202059
   0.6551961589807311   0.5436924363380525   0.1247111363031434
   0.6427204091680814   0.5297455692341202   0.2009569875492404
   0.8788294565963664   0.0248311548684399   0.1251118132619158
   0.9003621945328708   0.0124900378227739   0.1940430007255549
   0.5476257649940934   0.7967214053998213   0.1491288089428641
   0.5838937441162944   0.8635767667140848   0.2206052806237569
   0.7871504476835545   0.3008160211941068   0.1493160105969240
   0.7073217746363858   0.1845805547676036   0.2187820938609212
   0.1357660962724835   0.0428760709390090   0.1011796709640543
   0.1533674038147144   0.0495221406493271   0.1729478351782149
   0.4122392570614489   0.6262392850701800   0.1017474932841501
   0.4086309733117666   0.5544367909199096   0.1733584839626948
   0.1654536867186189   0.5276752490619706   0.1244248076078840
   0.1589695024218260   0.5387595333588443   0.1956700063170363
   0.3882128106803155   0.9976733024886848   0.1240425759557957
   0.3887990872854959   0.0378027495690716   0.1992298196678590
   0.0322007926862166   0.7741481933615965   0.1485431227421627
   0.0903500392994867   0.8320401060785396   0.2193016172527598
   0.3203331468312954   0.2831283806912290   0.1491321842555252
   0.3513990706661441   0.3614574869227470   0.2187425529414470
   0.3854795981300445   0.2242328406112271   0.4092581933978275
   0.5443498411709206   0.2339430020002828   0.4138575857856928
   0.5918422759048760   0.4851686781981164   0.5253455755360487
   0.5046174392724416   0.6058385576068701   0.5385482265013750
   0.6974409456507619   0.7095729800528754   0.5289933968432865
   0.6579217583184461   0.8740072528361036   0.5198009703911853
   0.7621503332422639   0.8828401615471706   0.6734474735480085
   0.7273231162260873   0.9595378588594158   0.6535915801845161
   0.7650810271253021   0.3725194680984660   0.5949281210249415
   0.6210204149467148   0.4355243438668670   0.5965996030288633
   0.9364929184615606   0.2626406240636776   0.6357429457635755
   0.0513156551910325   0.1388126011482795   0.6374391574079213
   0.3280049784053071   0.7731730208613952   0.3645770521964143
   0.3201200241147706   0.7808284355631214   0.3438410453281402
   0.9413956594316767   0.0227671098110525   0.3783615418503919
   0.0308744449304066   0.9139233594097050   0.3647111040367194
   0.0773476301710904   0.3590916940129494   0.7861044095170173
   0.2070639160610805   0.3783771424514240   0.7747291102648156
   0.2775770116414140   0.0410526660674149   0.3538732816365177
   0.2755282744002012   0.2162307527947973   0.3469957217230633
   0.6109451013259906   0.8915879823534686   0.3753255050523365
   0.5444317441673746   0.9781669154808151   0.3580777615573296
   0.4783984383559432   0.8677126035184022   0.4987156177985241
   0.4606435129694361   0.9908506522108993   0.5156103036987190
   0.3746291894825995   0.8165751528573703   0.6912642786431291
   0.2484618500773088   0.9333713771324372   0.6986827043169529
   0.7968346557324230   0.4611065086939699   0.4990157740197212
   0.9120380050347346   0.3734229569617391   0.5079978284411462
   0.2073947951482880   0.3780272712065858   0.7378284794066760
   0.1830697776856686   0.5400185264639590   0.7300809848293028
   0.5593132732499728   0.8548380915862230   0.6719439322145698
   0.4931774851723935   0.6747620197346387   0.6688229897272860
   0.9387425157114462   0.7225114398325534   0.4076196971691172
   0.9739449133930050   0.8022004448303938   0.3877346132036441
   0.7751331590379763   0.1624400315468051   0.4038070357000305
   0.7839008059789575   0.2625751447791782   0.4220169121477590
   0.7505047616811898   0.4613307254647732   0.5492465663206315
   0.9008838305096198   0.4113305795104243   0.5537362846708501
   0.6404393505143138   0.0567887993413239   0.5027903575805470
   0.7458484883439980   0.1102624177443656   0.4864875081130060
   0.4742548584413846   0.2975258447281878   0.4497952671875898
   0.3204965391821777   0.2888800122256721   0.4528062893687029
   0.2882664217067051   0.3021604514574145   0.6437552768846470
   0.4035056559796603   0.4297792283494601   0.6446815928257148
   0.7571201211355967   0.1940841388801067   0.7367359234399172
   0.8014707518345736   0.0334830721708075   0.7276928485190736
   0.4035026676850071   0.8413365831425177   0.5415523482826833
   0.3537972375755547   0.7831567119452860   0.5607180085987579
   0.9240002213982653   0.4208345857853635   0.6683088846262414
   0.9540212927236890   0.3748114523852848   0.6898750470094720
   0.4020106852634896   0.1661243402060684   0.7359435473466507
   0.3394671124673114   0.1639413159001988   0.7568559917467781
   0.8375545784207570   0.5506657806559976   0.4302169012463511
   0.8432297919950396   0.4190179272320278   0.4455667820643963
   0.8455707590028024   0.4675426146286958   0.3517030330283076
   0.8595061250525429   0.2938573131783120   0.3438004616569589
   0.9245341722317207   0.7672009030530964   0.3417838071002092
   0.0429681862912199   0.8676137098660943   0.3319098865380139
   0.6192227908376182   0.6442715981869346   0.3896411775000294
   0.7645124202382110   0.7038132978395074   0.3876820484264848
   0.3883862226854206   0.9033936096269271   0.4407261566087284
   0.4157285361396666   0.0737174242616658   0.4522680896027140
   0.9358067484951313   0.1228358681570885   0.3234782715117837
   0.7860464661679375   0.0878385839316080   0.3250912287127466
   0.5400540435777974   0.4311262278778882   0.4989555600451255
   0.6439105509844825   0.2892165602844408   0.5013887417717428
   0.7141227984188203   0.5942793923077347   0.6199322108316297
   0.7532856615810131   0.7495126221997150   0.6304664478232217
   0.9374868519981703   0.2273012246290116   0.7153976556728762
   0.0748923956567803   0.3249545330320487   0.7139963214087285
   0.6510740548693438   0.3559691318668916   0.6956297527513710
   0.6650074566196067   0.4227485364775483   0.7148108986145629
   0.3959524093395874   0.6577801751993446   0.7392553794613249
   0.3366060803327023   0.7275729795537168   0.7198677735592028
   0.3881443750821991   0.8468326236939756   0.6573521249461188
   0.2697345212565536   0.7890841813933527   0.6438700576015109
   0.3571142727422534   0.1183615977251449   0.2981480504006693
   0.3021512984355731   0.9555702831476334   0.2903332825825308
   0.8970131359648192   0.7641265002080817   0.5176314169363416
   0.9439393468666800   0.6270759196080428   0.5056918340938734
   0.3924097341808458   0.4208008934696790   0.3411918758925973
   0.2725216701342966   0.4723083477168535   0.3276092788875447
   0.4565330234026761   0.1354990307743491   0.6241431616511746
   0.4308780417093593   0.9521613904095400   0.6289980767118762
   0.1213413179766736   0.6521113033954611   0.5225915808625038
   0.2421779707629474   0.6586498215325527   0.5376691993351542
   0.6408561099090804   0.5310412603967590   0.7454441871126323
   0.8024097840438598   0.5686040611268894   0.7426356909928639
   0.1837939448117323   0.2351839395744948   0.5885958211756287
   0.1481560010425290   0.3334974722330051   0.5705325330908024
   0.0726050550402669   0.1615887693805389   0.7678127794745391
   0.9527757309286412   0.1088948567282828   0.7543540531612676
   0.0607827580757166   0.3548481574245173   0.4066477203748295
   0.9853305275334849   0.3447557007434761   0.4237061233233826
   0.1718019979306447   0.1357698905554658   0.6663362589763644
   0.2642923337223160   0.0429697580810180   0.6515311030784119
   0.5169153685907582   0.6027303172455569   0.3230830317712083
   0.6318052877845733   0.5841809154122155   0.3094815819036679
   0.7776699828368576   0.3206885638429511   0.3105906446232050
   0.7779417597314356   0.3426690429194241   0.2889524239342789
   0.0133057459978616   0.6656504474700629   0.7578905258988509
   0.0108416091066404   0.4973523334778076   0.7469167679811319
   0.2373152795812111   0.0327331925500762   0.5370744082988118
   0.3758553226561933   0.1229293302684995   0.5417794538729146
   0.1808340328199973   0.7697453717968396   0.6002338600264597
   0.0172513639653304   0.7372183267479064   0.5982372921729291
   0.5747746721697338   0.9966565996281957   0.5779477877445313
   0.5186251923678256   0.0323906675456127   0.5974282784059590
   0.7798885038307890   0.0250667338875765   0.4574535483149983
   0.9122228769130847   0.9980093290608897   0.4686377881697763
   0.7217604694723752   0.0345852379289726   0.4301420162434366
   0.6021050826778918   0.9456146893280142   0.4428995502028854
   0.1469156826908881   0.0459550756454470   0.3109169239291507
   0.1438971238133218   0.0782407744950493   0.3323135687395237
   0.1911537999654779   0.7764135736276814   0.7492242681383889
   0.0971824330719187   0.9075848644947141   0.7607231675201603
   0.7796182483052839   0.3019590947987061   0.6766960706986093
   0.6777861124980042   0.1641546759261889   0.6701042469178773
   0.7355463304330343   0.8409617735124698   0.5551750729559455
   0.7949946982304787   0.9912689978732727   0.5671601962115915
   0.1883416377090044   0.6011071158273602   0.4506830776584322
   0.1160922804302861   0.7517480123335814   0.4605350917987235
   0.2779373108262052   0.8711523316586771   0.4125078465323119
   0.2401389746991600   0.7736395359243323   0.4298124652198968
   0.9962689407917553   0.8232343633211816   0.4890970514689837
   0.1036816085190158   0.9408509146567928   0.4826245858919944
   0.3753444262885982   0.6423620952671903   0.5916389591477896
   0.3914449248490770   0.8274437334902534   0.5884139370919836
   0.8352950284131599   0.2382511481517819   0.5698423870745906
   0.9115696778226997   0.1877838286183566   0.5861767730304702
   0.9256651288950654   0.2409963977251732   0.4618686518196050
   0.9626801276074870   0.3804251606520068   0.4752254461329710
   0.4069607577127048   0.0385053654756793   0.7123095734645873
   0.5174826980624065   0.1881171227426863   0.7142721564711310
   0.3185474894102288   0.2422415641569429   0.5215276722570072
   0.2189153872710017   0.4071337657376370   0.5243954464700579
   0.0193331054113156   0.0929807112393255   0.5301711366203755
   0.0439133554848146   0.9136623410573379   0.5320462692742086
   0.3967565161222150   0.3667274456484155   0.4788513462522642
   0.3367461091076676   0.4311101132957342   0.4979525741480564
   0.8024615832046917   0.6056410163413120   0.5886257425934420
   0.8322239396421662   0.7596897716026203   0.5772724370163201
   0.2336076663346161   0.5470759768866551   0.3808638604757561
   0.3729738689604845   0.6193018780975739   0.3863951755545376
   0.1830215405195897   0.0359388431294374   0.3901174120881994
   0.1735462772799661   0.1334979233226425   0.4082827985853417
   0.5384844483337404   0.0497524464092844   0.3223008429628992
   0.5910798842067261   0.8761195105071071   0.3246708413892532
   0.4966557692314421   0.4951114758480493   0.4091631234408934
   0.4642449916833787   0.6659465275074116   0.4139442640206517
   0.1408113202871885   0.6449836778981211   0.6219062096242574
   0.2203306173342878   0.5175402059280663   0.6352474774812584
   0.9217230094067699   0.5284186221698479   0.7775539033971884
   0.8591408250289627   0.4839251658638235   0.7966289107257042
   0.0836687500593867   0.1049368047490511   0.6970471079217457
   0.0269260391689963   0.9485757877701718   0.6901449532649649
   0.5128678025012275   0.2711663382889633   0.3663812145327945
   0.3950245110934519   0.3959075941006016   0.3687681206999157
   0.5215456881622689   0.3544513256277648   0.5488448613775263
   0.4986521707810809   0.2317257473191350   0.5651636297527961
   0.7353134278982822   0.1013647894147278   0.3745634074543462
   0.8250153595379013   0.2576300066567963   0.3718505762576217
   0.6133145449978485   0.5699009783090512   0.6481915021101996
   0.5963067768669761   0.4232095080498137   0.6613503544040994
   0.6590646637925704   0.0004731456343812   0.6273189205671647
   0.8321583836582380   0.0232054887530235   0.6295053815331678
   0.0586882786124322   0.4080803416184444   0.3394419944092673
   0.0987826950710199   0.5777240440914205   0.3345673412734378
   0.4477484228268668   0.4041215379312957   0.7536309217107726
   0.4845220611516156   0.5608556238532364   0.7660324066791053
   0.2666914688738752   0.7144758089664783   0.7762795270307999
   0.2607783523133694   0.5939314667725757   0.7928596405437925
   0.8415742931647852   0.8025676114804018   0.7030963759825163
   0.8804259245446980   0.6893368232742316   0.6887582078285929
   0.9660239154306114   0.5844833309940385   0.5699965148559436
   0.0732292866900008   0.5712951198357010   0.5529003419265356
   0.8493098816822265   0.5218515592276070   0.6409882496992230
   0.0071891327796526   0.5021009067074280   0.6427747394137951
   0.1636595369500667   0.1860008053400817   0.4957265523574090
   0.2672075158978951   0.1367152415714448   0.4825132720839611
   0.1166621508626145   0.3708840566934177   0.4540731887372474
   0.1566815426408180   0.3707073366618590   0.4344587681629296
   0.0115192872936963   0.1501751344629922   0.6102736067729855
   0.0573306968754199   0.0073380814658774   0.5981251339372068
   0.8730688609288936   0.2750276990522795   0.5318686239177010
   0.8453474635465572   0.1659133404645146   0.5136731248840710
   0.3999349086445369   0.8347555497668293   0.4726673552003572
   0.3951938363835509   0.6630744935450477   0.4832859263084501
   0.6490558223781320   0.8521859038506642   0.7182358225981809
   0.7310965773926645   0.7283355474275418   0.7286135211430033
   0.7124502773226999   0.6222500926163309   0.3366869574768058
   0.7097346102387297   0.6511033229057209   0.3589792747375126
   0.8289599264951024   0.8270333233622946   0.4349625724465613
   0.9550022907865199   0.7268158862365017   0.4400924788652097
   0.0446286181892733   0.4303672957066638   0.3738376215240333
   0.0014185986418259   0.5719330941755232   0.3886073881224220
   0.4165129742628710   0.3257559318178289   0.3152014101822249
   0.5490767190883328   0.2708475775354069   0.3016432218902664
   0.3462839135333728   0.3970374529196514   0.5902665245185462
   0.3977093697721568   0.4437615600012390   0.6095149921292294
   0.4846712948367977   0.7702634579895979   0.2517347942487291
   0.5371076233123451   0.9663741770065180   0.2503584695977448
   0.7880546474647445   0.8719476236908186   0.2505270340874625
   0.7094325091598130   0.6803027236704422   0.2529051522486551
   0.6022939199627997   0.7698599010752670   0.2835050134007805
   0.6395004576650947   0.9707708976892929   0.2760898567187747
   0.8707674948357884   0.7282070757204803   0.2809587733104811
   0.8116277101838738   0.8209489048027971   0.3003098121043116
   0.9631626809934926   0.0232034264427055   0.2941728656153214
   0.8884793931709984   0.0631120391870641   0.2730635430091709
   0.0236735955146337   0.8364762014524314   0.2595953640783740
   0.1056320601830599   0.8360993642451443   0.2801093889611597
   0.1267341387028698   0.0031311532272496   0.2670175361769841
   0.6570333424678204   0.1917108521892603   0.2525569346191832
   0.8246672433384011   0.1559400701155342   0.2469643108005586
   0.7485533629328794   0.4400209517747500   0.2597882445120710
   0.6934818636473918   0.4545569456285361   0.2379329966435205
   0.8803782692249456   0.5855349487869466   0.2333818748160623
   0.9438042073315028   0.3940927266560128   0.2281978028626300
   0.9667434052657915   0.5702298168030622   0.2633377989349630
   0.0897075071683388   0.5736139562150246   0.2458394371754482
   0.1069224805250286   0.2700878039751879   0.2527961709404200
   0.9972244990053960   0.2971866334605797   0.2705525716006880
   0.2700883111860500   0.4820252082966954   0.2685303881192003
   0.2457310163397273   0.2974075660832329   0.2801586007822642
   0.1533314614407335   0.4640402064544644   0.2859527961626347
   0.5618768073753109   0.8468320171562269   0.2457256336520118
   0.6933168485381664   0.8074759220813783   0.2561861652111440
   0.6794783018686601   0.8486364251171401   0.2763389663004197
   0.8226415507461413   0.8394992939625656   0.2858083158100960
   0.9334179099627116   0.9685837645588222   0.2804558012856524
   0.0574020171891582   0.9109991039518196   0.2704351584131245
   0.7433845499807319   0.2286692632624405   0.2437466448750419
   0.7708927184977792   0.4055118250734775   0.2458330092216187
   0.9043945859220659   0.4662233034154053   0.2388916974010208
   0.0115423308224345   0.5007193034260022   0.2528358850306524
   0.0822268940516498   0.3590291463330384   0.2618984222791618
   0.1945736653154322   0.4037137238026076   0.2746767829760353
